 vasp.5.3.2 13Sep12 (build Mar 19 2013 12:21:59) complex

 executed on             LinuxIFC date 2013.05.17  10:15:21

 INCAR:
 POTCAR:  PAW_PBE Rh 06Sep2000
 POTCAR:  PAW_PBE Sn_d 06Sep2000
 POTCAR:  PAW_PBE V 08Apr2002
 POTCAR:  PAW_PBE Rh 06Sep2000
   VRHFIN =Rh: s1 d8

   TITEL  = PAW_PBE Rh 06Sep2000
   POMASS =  102.906; ZVAL   =    9.000    mass and valenz
   ENMAX  =  229.000; ENMIN  =  171.750 eV
   QCUT   =   -4.103; QGAM   =    8.205    optimization parameters

   Description
     l     E      TYP  RCUT    TYP  RCUT
     2   .000     23  2.500
     2   .000     23  2.500
     0   .000     23  2.400
     0   .000     23  2.400
     1  -.200     23  2.500
     1   .000     23  2.500
     3   .000      7   .000

 POTCAR:  PAW_PBE Sn_d 06Sep2000
   VRHFIN =Sn: s2p2

   TITEL  = PAW_PBE Sn_d 06Sep2000
   POMASS =  118.710; ZVAL   =   14.000    mass and valenz
   ENMAX  =  241.090; ENMIN  =  180.817 eV
   QCUT   =   -4.209; QGAM   =    8.419    optimization parameters

[...]

 POTCAR:  PAW_PBE V 08Apr2002
   VRHFIN =V: p6 d4 s1

   TITEL  = PAW_PBE V 08Apr2002
   POMASS =   50.941; ZVAL   =    5.000    mass and valenz
   ENMAX  =  192.543; ENMIN  =  144.408 eV
   QCUT   =   -3.762; QGAM   =    7.524    optimization parameters

   Description
     l     E      TYP  RCUT    TYP  RCUT
     2   .000     23  2.700
     2   .000     23  2.700
     0   .000     23  2.700
     0  2.000     23  2.700
     1   .000     23  2.700
     1  2.000     23  2.700
     3   .000      7   .000

PAW_PBE Rh 06Sep2000                    :
PAW_PBE Sn_d 06Sep2000                  :
PAW_PBE V 08Apr2002                     :

 POSCAR: Rh Sn V
  positions in direct lattice
 exchange correlation table for  LEXCH =        8
   RHO(1)=    0.500       N(1)  =     2000
   RHO(2)=  100.500       N(2)  =     4000

 ion  position               nearest neighbor table
   1  0.000  0.500  0.500-  14 2.74  11 2.74  12 2.74  13 2.74  10 2.74  15 2.74  16 2.74   9 2.74
                             5 2.85   6 2.85   5 2.85   6 2.85
   2  0.500  0.000  0.500-  13 2.74  11 2.74  12 2.74  14 2.74   9 2.74  15 2.74  16 2.74  10 2.74
                             5 2.85   6 2.85   5 2.85   6 2.85
   3  0.500  0.000  0.000-  13 2.74  11 2.74   9 2.74  15 2.74  12 2.74  14 2.74  16 2.74  10 2.74
                             7 2.85   8 2.85   7 2.85   8 2.85
   4  0.000  0.500  0.000-  14 2.74  11 2.74  10 2.74  15 2.74  12 2.74  13 2.74  16 2.74   9 2.74
                             7 2.85   8 2.85   7 2.85   8 2.85
   5  0.500  0.500  0.500-  12 2.74  13 2.74  14 2.74  11 2.74  16 2.74  10 2.74   9 2.74  15 2.74
                             1 2.85   2 2.85   2 2.85   1 2.85
   6  0.000  0.000  0.500-  11 2.74  13 2.74  14 2.74  12 2.74  15 2.74  10 2.74   9 2.74  16 2.74
                             1 2.85   2 2.85   2 2.85   1 2.85
   7  0.500  0.500  0.000-  12 2.74  13 2.74  14 2.74  11 2.74  16 2.74  10 2.74   9 2.74  15 2.74
                             3 2.85   4 2.85   3 2.85   4 2.85
   8  0.000  0.000  0.000-  11 2.74  15 2.74  14 2.74  13 2.74   9 2.74  10 2.74  12 2.74  16 2.74
                             3 2.85   4 2.85   3 2.85   4 2.85
   9  0.250  0.750  0.750-   2 2.74   6 2.74   3 2.74   8 2.74   5 2.74   1 2.74   7 2.74   4 2.74
                            15 2.85  16 2.85  15 2.85  16 2.85
  10  0.750  0.250  0.750-   1 2.74   6 2.74   4 2.74   8 2.74   5 2.74   2 2.74   7 2.74   3 2.74
                            15 2.85  16 2.85  15 2.85  16 2.85
  11  0.750  0.750  0.250-   6 2.74   2 2.74   1 2.74   5 2.74   8 2.74   4 2.74   3 2.74   7 2.74
                            13 2.85  14 2.85  14 2.85  13 2.85
  12  0.250  0.250  0.250-   5 2.74   2 2.74   1 2.74   6 2.74   7 2.74   4 2.74   3 2.74   8 2.74
                            13 2.85  14 2.85  14 2.85  13 2.85
  13  0.250  0.750  0.250-   2 2.74   6 2.74   5 2.74   1 2.74   3 2.74   8 2.74   7 2.74   4 2.74
                            11 2.85  12 2.85  11 2.85  12 2.85
  14  0.750  0.250  0.250-   1 2.74   6 2.74   5 2.74   2 2.74   4 2.74   8 2.74   7 2.74   3 2.74
                            11 2.85  12 2.85  11 2.85  12 2.85
  15  0.750  0.750  0.750-   6 2.74   8 2.74   1 2.74   2 2.74   3 2.74   4 2.74   5 2.74   7 2.74
                             9 2.85  10 2.85  10 2.85   9 2.85
  16  0.250  0.250  0.750-   5 2.74   2 2.74   1 2.74   6 2.74   7 2.74   4 2.74   3 2.74   8 2.74
                             9 2.85  10 2.85  10 2.85   9 2.85

  LATTYP: Found a simple tetragonal cell.
 ALAT       =     5.7079180000
 C/A-ratio  =     1.2980128656

  Lattice vectors:

 A1 = (   5.7079180000,   0.0000000000,   0.0000000000)
 A2 = (   0.0000000000,   5.7079180000,   0.0000000000)
 A3 = (   0.0000000000,   0.0000000000,   7.4089510000)

Analysis of symmetry for initial positions (statically):
 Subroutine PRICEL returns following result:

  LATTYP: Found a body centered tetragonal cell.
 ALAT       =     4.0361061237
 C/A-ratio  =     1.8356680357

[...]

   4 primitive cells build up your supercell.

 Routine SETGRP: Setting up the symmetry group for a
 simple tetragonal supercell.

 Subroutine GETGRP returns: Found 16 space group operations
 (whereof  8 operations were pure point group operations)
 out of a pool of 16 trial point group operations.

The static configuration has the point symmetry D_2d.
 The point group associated with its full space group is D_4h.

Analysis of symmetry for dynamics (positions and initial velocities):
 Subroutine PRICEL returns following result:

  LATTYP: Found a body centered tetragonal cell.
 ALAT       =     4.0361061237
 C/A-ratio  =     1.8356680357

  Lattice vectors:

 A1 = (   0.0000000000,  -2.8539580097,   3.7044808070)
 A2 = (   0.0000000000,   2.8539580097,   3.7044701930)
 A3 = (  -2.8539580097,   0.0000000000,  -3.7044701930)

   4 primitive cells build up your supercell.

 Routine SETGRP: Setting up the symmetry group for a
 simple tetragonal supercell.

 Subroutine GETGRP returns: Found 16 space group operations
 (whereof  8 operations were pure point group operations)
 out of a pool of 16 trial point group operations.

The dynamic configuration has the point symmetry D_2d.
 The point group associated with its full space group is D_4h.

Analysis of magnetic symmetry:

 Subroutine MAGSYM returns: Found 16 space group operations
 (whereof  8 operations were pure point group operations)
 out of a pool of 16 trial space group operations
 (whereof  8 operations were pure point group operations)
 and found also     4 'primitive' translations

The magnetic configuration has the point symmetry D_2d.
 The point group associated with its full space group is D_4h.

 KPOINTS: KPOINTS

Automatic generation of k-mesh.
Space group operators:
 irot       det(A)        alpha          n_x          n_y          n_z        tau_x        tau_y        tau_z
    1     1.000000     0.000000     1.000000     0.000000     0.000000     0.000000     0.000000     0.000000
    2    -1.000000    90.000000     0.000000     0.000000    -1.000000     0.000000     0.000000     0.000000
    3     1.000000   180.000000     0.000000     0.000000     1.000000     0.000000     0.000000     0.000000
    4    -1.000000    90.000000     0.000000     0.000000     1.000000     0.000000     0.000000     0.000000
    5     1.000000   180.000000     0.000000     1.000000     0.000000     0.000000     0.000000     0.000000
    6    -1.000000   180.000000     0.707107     0.707107     0.000000     0.000000     0.000000     0.000000
    7     1.000000   180.000000     1.000000     0.000000     0.000000     0.000000     0.000000     0.000000
    8    -1.000000   180.000000     0.707107    -0.707107     0.000000     0.000000     0.000000     0.000000
    9    -1.000000     0.000000     1.000000     0.000000     0.000000    -0.499999     0.000000     0.000001
   10     1.000000    90.000000     0.000000     0.000000    -1.000000    -0.499999     0.000000     0.000001
   11    -1.000000   180.000000     0.000000     0.000000     1.000000     0.000000     0.000000     0.500001
   12     1.000000    90.000000     0.000000     0.000000     1.000000     0.000000     0.000000     0.500001
   13    -1.000000   180.000000     0.000000     1.000000     0.000000     0.000000     0.000000     0.500001
   14     1.000000   180.000000     0.707107     0.707107     0.000000     0.000000     0.000000     0.500001
   15    -1.000000   180.000000     1.000000     0.000000     0.000000    -0.499999     0.000000     0.000001
   16     1.000000   180.000000     0.707107    -0.707107     0.000000    -0.499999     0.000000     0.000001

 Subroutine IBZKPT returns following result:

 Found     60 irreducible k-points:

 Following reciprocal coordinates:
            Coordinates               Weight
  0.000000  0.000000  0.000000      1.000000
  0.125000  0.000000  0.000000      4.000000
  0.250000  0.000000  0.000000      4.000000
  0.375000  0.000000  0.000000      4.000000
  0.500000  0.000000  0.000000      2.000000
  0.125000  0.125000  0.000000      4.000000
  0.250000  0.125000  0.000000      8.000000
  0.375000  0.125000  0.000000      8.000000
  0.500000  0.125000  0.000000      4.000000
  0.250000  0.250000  0.000000      4.000000
  0.375000  0.250000  0.000000      8.000000
  0.500000  0.250000  0.000000      4.000000
  0.375000  0.375000  0.000000      4.000000
  0.500000  0.375000  0.000000      4.000000
  0.500000  0.500000  0.000000      1.000000
  0.000000  0.000000  0.166667      2.000000
  0.125000  0.000000  0.166667      8.000000
  0.250000  0.000000  0.166667      8.000000
  0.375000  0.000000  0.166667      8.000000
  0.500000  0.000000  0.166667      4.000000
  0.125000  0.125000  0.166667      8.000000
  0.250000  0.125000  0.166667     16.000000
  0.375000  0.125000  0.166667     16.000000
  0.500000  0.125000  0.166667      8.000000
  0.250000  0.250000  0.166667      8.000000
  0.375000  0.250000  0.166667     16.000000
  0.500000  0.250000  0.166667      8.000000
  0.375000  0.375000  0.166667      8.000000
  0.500000  0.375000  0.166667      8.000000
  0.500000  0.500000  0.166667      2.000000
  0.000000  0.000000  0.333333      2.000000
  0.125000  0.000000  0.333333      8.000000
  0.250000  0.000000  0.333333      8.000000
  0.375000  0.000000  0.333333      8.000000
  0.500000  0.000000  0.333333      4.000000
  0.125000  0.125000  0.333333      8.000000
  0.250000  0.125000  0.333333     16.000000
  0.375000  0.125000  0.333333     16.000000
  0.500000  0.125000  0.333333      8.000000
  0.250000  0.250000  0.333333      8.000000
  0.375000  0.250000  0.333333     16.000000
  0.500000  0.250000  0.333333      8.000000
  0.375000  0.375000  0.333333      8.000000
  0.500000  0.375000  0.333333      8.000000
  0.500000  0.500000  0.333333      2.000000
  0.000000  0.000000  0.500000      1.000000
  0.125000  0.000000  0.500000      4.000000
  0.250000  0.000000  0.500000      4.000000
  0.375000  0.000000  0.500000      4.000000
  0.500000  0.000000  0.500000      2.000000
  0.125000  0.125000  0.500000      4.000000
  0.250000  0.125000  0.500000      8.000000
  0.375000  0.125000  0.500000      8.000000
  0.500000  0.125000  0.500000      4.000000
[...]

 eigenvalue-minimisations  : 28928
 total energy-change (2. order) : 0.1845468E+04  (-0.5606479E+04)
 number of electron     148.0000000 magnetization      60.0000000
 augmentation part      148.0000000 magnetization      60.0000000

 Free energy of the ion-electron system (eV)
  alpha Z        PSCENC =       922.24171481
  Ewald energy   TEWEN  =    -12199.77309797
  -1/2 Hartree   DENC   =     -2554.05889308
  -exchange  EXHF       =         0.00000000
  -V(xc)+E(xc)   XCENC  =       -55.20547016
  PAW double counting   =     10150.01634036    -9766.87283966
  entropy T*S    EENTRO =         0.00000000
  eigenvalues    EBANDS =      2160.97136738
  atomic energy  EATOM  =     13188.14867366
  free energy    TOTEN  =      1845.46779536 eV

  energy without entropy =     1845.46779536  energy(sigma->0) =     1845.46779536

[...]

 BZINTS: Fermi energy: 14.304793;148.000000 electrons
         Band energy: 594.943950;  BLOECHL correction: -0.059373

 eigenvalue-minimisations  : 28320
 total energy-change (2. order) :-0.1566027E+04  (-0.1429972E+04)
 number of electron     148.0000000 magnetization      60.0000000
 augmentation part      148.0000000 magnetization      60.0000000

[...]

 Broyden mixing:
  rms(total) = 0.55389E+01    rms(broyden)= 0.55389E+01
  rms(prec ) = 0.61932E+01
  weight for this iteration     100.00

[...]

 eigenvalues of (default mixing * dielectric matrix)
  average eigenvalue GAMMA=   0.6999
  0.6999

[...]

 eigenvalue-minimisations  : 19888
 total energy-change (2. order) :-0.2350583E-03  (-0.7579014E-05)
 number of electron     147.9998852 magnetization       4.7112185
 augmentation part       65.9849897 magnetization       3.1769265

 Broyden mixing:
  rms(total) = 0.37555E-02    rms(broyden)= 0.37555E-02
  rms(prec ) = 0.48643E-02
  weight for this iteration     100.00

 eigenvalues of (default mixing * dielectric matrix)
  average eigenvalue GAMMA=   1.0899
  2.6266  1.5546  1.5546  0.2486  1.0621  0.9205  0.9205  0.7316  0.6727  0.6068

[...]

----------------------------------------- Iteration    1(  16)  ---------------------------------------

WARNING in EDDRMM: call to ZHEGV failed, returncode =   8  4 53
 BZINTS: Fermi energy:  9.003173;148.000000 electrons
         Band energy: 122.864900;  BLOECHL correction: -0.047535

 eigenvalue-minimisations  : 18301
 total energy-change (2. order) : 0.4036763E-04  (-0.3194812E-05)
 number of electron     147.9998852 magnetization       4.7112185
 augmentation part       65.9849897 magnetization       3.1769265

 Free energy of the ion-electron system (eV)
  alpha Z        PSCENC =       922.24171481
  Ewald energy   TEWEN  =    -12199.77309797
  -1/2 Hartree   DENC   =     -2421.05368355
  -exchange  EXHF       =         0.00000000
  -V(xc)+E(xc)   XCENC  =       -87.80097661
  PAW double counting   =     10960.43112795   -10601.56109020
  entropy T*S    EENTRO =         0.00000000
  eigenvalues    EBANDS =       122.86489960
  atomic energy  EATOM  =     13188.14867366
  free energy    TOTEN  =      -116.50243230 eV

  energy without entropy =     -116.50243230  energy(sigma->0) =     -116.50243230

 average (electrostatic) potential at core
  the test charge radii are     1.1806  1.0894  1.2064
  (the norm of the test charge is              1.0000)
       1 -46.0700       2 -46.0700       3 -46.0698       4 -46.0698       5 -46.0702
       6 -46.0703       7 -46.0696       8 -46.0696       9 -98.0635      10 -98.0635
      11 -98.0639      12 -98.0638      13 -37.2943      14 -37.2943      15 -37.2939
      16 -37.2938

 E-fermi :   9.0032     XC(G=0): -12.8427     alpha+bet :-16.0380

 spin component 1

 k-point   1 :       0.0000    0.0000    0.0000
  band No.  band energies     occupation
      1     -12.4154      1.00000
      2     -12.4150      1.00000
      3     -12.4122      1.00000
      4     -12.4105      1.00000
      5     -12.4105      1.00000
      6     -12.4041      1.00000
      7     -12.4011      1.00000
      8     -12.4011      1.00000
      9     -12.3990      1.00000
     10     -12.3944      1.00000
     11     -12.3923      1.00000
     12     -12.3923      1.00000
     13     -12.3908      1.00000
     14     -12.3908      1.00000
     15     -12.3798      1.00000
     16     -12.3794      1.00000
     17     -12.3553      1.00000
     18     -12.3549      1.00000
     19     -12.3547      1.00000
     20     -12.3542      1.00000
     21      -1.5541      1.00000
     22       0.0097      1.00000
     23       0.5730      1.00000
     24       0.5733      1.00000
     25       2.5998      1.00000
     26       3.2617      1.00000
     27       3.2617      1.00000
     28       3.8678      1.00000
     29       4.2618      1.00000
     30       4.3024      1.00000
     31       4.4104      1.00000
     32       4.4104      1.00000
     33       4.5708      1.00000
     34       4.6983      1.00000
     35       4.6983      1.00000
     36       4.8243      1.00000
     37       4.8244      1.00000
     38       4.8386      1.00000
     39       5.1799      1.00000
     40       5.2467      1.00000
     41       5.2467      1.00000
     42       5.3447      1.00000
     43       5.3449      1.00000
     44       5.3879      1.00000
     45       5.3879      1.00000
     46       6.1006      1.00000
     47       6.1006      1.00000
     48       6.5958      1.00000
     49       6.5958      1.00000
     50       6.8574      1.00000
     51       6.8574      1.00000
     52       6.8750      1.00000
     53       6.8750      1.00000
     54       6.9765      1.00000
     55       6.9766      1.00000
     56       7.0864      1.00000
     57       7.1602      1.00000
     58       7.1602      1.00000
     59       7.2269      1.00000
     60       7.2269      1.00000
[...]
    104      15.5466      0.00000
    105      16.1922      0.00000
    106      16.4810      0.00000
    107      17.8988      0.00000
    108      18.1321      0.00000
    109      18.2372      0.00000
    110      18.5718      0.00000
    111      18.8454      0.00000
    112      18.8559      0.00000
    113      18.8615      0.00000
    114      18.8720      0.00000
    115      18.8775      0.00000
    116      18.9978      0.00000
    117      19.1744      0.00000
    118      19.2760      0.00000

[...]

 spin component 2

[...]

 k-point  60 :       0.5000    0.5000    0.5000
  band No.  band energies     occupation
      1     -12.4081      1.00000
      2     -12.4081      1.00000
      3     -12.4078      1.00000
      4     -12.4078      1.00000
      5     -12.4029      1.00000
      6     -12.4029      1.00000
      7     -12.4025      1.00000
      8     -12.4025      1.00000
      9     -12.3886      1.00000
     10     -12.3886      1.00000
     11     -12.3882      1.00000
     12     -12.3882      1.00000
     13     -12.3856      1.00000
     14     -12.3855      1.00000
     15     -12.3852      1.00000
     16     -12.3852      1.00000
     17     -12.3564      1.00000
     18     -12.3563      1.00000
     19     -12.3560      1.00000
     20     -12.3560      1.00000
     21       0.2863      1.00000
     22       0.2864      1.00000
     23       0.2867      1.00000
     24       0.2867      1.00000
     25       3.0879      1.00000
     26       3.0879      1.00000
     27       3.0881      1.00000
     28       3.0882      1.00000
     29       4.4260      1.00000
     30       4.4261      1.00000
     31       4.4261      1.00000
     32       4.4261      1.00000
     33       4.9714      1.00000
     34       4.9714      1.00000
     35       4.9716      1.00000
     36       4.9716      1.00000
     37       5.6301      1.00000
     38       5.6301      1.00000
     39       5.6301      1.00000
     40       5.6301      1.00000
     41       5.8931      1.00000
     42       5.8931      1.00000
     43       5.8931      1.00000
     44       5.8931      1.00000
     45       5.9124      1.00000
     46       5.9124      1.00000
     47       5.9125      1.00000
     48       5.9125      1.00000
     49       6.3322      1.00000
     50       6.3322      1.00000
     51       6.3323      1.00000
     52       6.3323      1.00000
     53       6.6132      1.00000
     54       6.6132      1.00000
     55       6.6132      1.00000
     56       6.6132      1.00000
     57       6.6573      1.00000
     58       6.6573      1.00000
     59       6.6573      1.00000
     60       6.6573      1.00000
[...]
    104      15.0196      0.00000
    105      15.9515      0.00000
    106      15.9516      0.00000
    107      15.9518      0.00000
    108      15.9518      0.00000
    109      18.3116      0.00000
    110      18.3116      0.00000
    111      18.3118      0.00000
    112      18.3118      0.00000
    113      20.1598      0.00000
    114      20.1607      0.00000
    115      20.3455      0.00000
    116      20.5922      0.00000
    117      20.7395      0.00000
    118      20.9299      0.00000

 soft charge-density along one line, spin component           1
         0         1         2         3         4         5         6         7         8         9
 total charge-density along one line

 soft charge-density along one line, spin component           2
         0         1         2         3         4         5         6         7         8         9
 total charge-density along one line

------------------------ aborting loop because EDIFF is reached ----------------------------------------

 total charge

# of ion     s       p       d       tot
  1        0.376   0.382   7.253   8.012
  2        0.376   0.382   7.253   8.012
  3        0.376   0.382   7.252   8.011
  4        0.376   0.382   7.253   8.011
  5        0.376   0.382   7.253   8.012
  6        0.376   0.382   7.253   8.012
  7        0.376   0.382   7.252   8.011
  8        0.376   0.382   7.253   8.011
  9        1.074   1.336  10.111  12.522
 10        1.074   1.336  10.111  12.522
 11        1.074   1.337  10.111  12.522
 12        1.074   1.337  10.111  12.522
 13        0.448   0.589   3.399   4.436
 14        0.448   0.589   3.405   4.442
 15        0.448   0.589   3.389   4.426
 16        0.448   0.590   3.383   4.421
tot        9.101  10.761 112.044 131.906

 magnetization (x)

[...]

  FORCE on cell =-STRESS in cart. coord.  units (eV):
  Direction    XX          YY          ZZ          XY          YZ          ZX
  Alpha Z   922.24171   922.24171   922.24171
  Ewald   -4141.51585 -4141.51585 -3916.77135     0.00000     0.00000     0.00000
  Hartree   756.80813   756.80813   907.31278     0.00000     0.00000     0.00000
  E(xc)    -718.22883  -718.22883  -718.32628     0.00000     0.00000     0.00000
  Local     566.73220   566.73220   191.12509     0.00000     0.00000     0.00000
  n-local    31.38260    15.61099    27.23696     0.86832    -0.49039     0.89421
  augment  1165.38192  1165.38192  1164.02955     0.00000     0.00000     0.00000
  Kinetic  1433.99724  1430.66764  1427.69623    -0.76496     0.88534     2.81378
  Fock        0.00000     0.00000     0.00000     0.00000     0.00000     0.00000
  Total       7.24852     7.24852     4.54469     0.00000     0.00000     0.00000
  in kB      48.11137    48.11137    30.16498     0.00000     0.00000     0.00000

 VOLUME and BASIS-vectors are now :
  energy-cutoff  :      520.00
  volume of cell :      241.39
      direct lattice vectors                 reciprocal lattice vectors
     5.707918000  0.000000000  0.000000000     0.175195229  0.000000000  0.000000000
     0.000000000  5.707918000  0.000000000     0.000000000  0.175195229  0.000000000
     0.000000000  0.000000000  7.408951000     0.000000000  0.000000000  0.134971874

  length of vectors
     5.707918000  5.707918000  7.408951000     0.175195229  0.175195229  0.134971874

 FORCES acting on ions
    electron-ion (+dipol)            ewald-force                    non-local-force                 convergence-correction
   0.102E-02 0.259E-03 0.391E-02   0.398E-03 -.295E-03 0.284E-02   0.651E-17 -.434E-17 -.173E-17   -.118E-04 0.109E-04 -.186E-03
   0.259E-03 0.102E-02 0.391E-02   -.295E-03 0.398E-03 0.284E-02   -.867E-18 -.434E-17 -.434E-17   0.109E-04 -.118E-04 -.186E-03
   0.259E-03 0.102E-02 -.117E-03   -.295E-03 0.398E-03 -.141E-02   -.173E-17 0.390E-17 0.173E-17   0.109E-04 -.118E-04 0.176E-03
   0.102E-02 0.259E-03 -.117E-03   0.398E-03 -.295E-03 -.141E-02   -.477E-17 0.434E-18 -.434E-17   -.118E-04 0.109E-04 0.176E-03
   0.259E-03 0.259E-03 0.391E-02   -.295E-03 -.295E-03 0.284E-02   0.347E-17 0.130E-17 0.347E-17   0.109E-04 0.109E-04 -.186E-03
   0.102E-02 0.102E-02 0.391E-02   0.398E-03 0.398E-03 0.284E-02   0.434E-18 0.217E-17 -.867E-18   -.118E-04 -.118E-04 -.186E-03
   0.259E-03 0.259E-03 -.117E-03   -.295E-03 -.295E-03 -.141E-02   -.520E-17 -.520E-17 -.434E-17   0.109E-04 0.109E-04 0.176E-03
   0.102E-02 0.102E-02 -.117E-03   0.398E-03 0.398E-03 -.141E-02   0.304E-17 -.173E-17 -.173E-17   -.118E-04 -.118E-04 0.176E-03
   0.108E-02 -.306E-02 0.114E-01   0.366E-03 -.518E-03 0.215E-02   0.678E-20 0.487E-20 0.000E+00   -.169E-04 0.225E-04 -.298E-03
   -.306E-02 0.108E-02 0.114E-01   -.518E-03 0.366E-03 0.215E-02   0.102E-19 -.254E-20 0.000E+00   0.225E-04 -.169E-04 -.298E-03
   -.306E-02 -.306E-02 -.102E-01   -.518E-03 -.518E-03 -.426E-02   -.508E-20 0.424E-21 0.000E+00   0.225E-04 0.225E-04 0.314E-03
   0.108E-02 0.108E-02 -.102E-01   0.366E-03 0.366E-03 -.426E-02   -.339E-20 0.508E-20 0.000E+00   -.169E-04 -.169E-04 0.314E-03
   0.576E-03 0.471E-03 -.379E-03   0.215E-03 -.269E-03 -.163E-02   0.328E-20 -.847E-21 0.000E+00   -.670E-05 0.528E-05 0.101E-03
   0.471E-03 0.576E-03 -.379E-03   -.269E-03 0.215E-03 -.163E-02   -.339E-20 -.424E-21 0.000E+00   0.528E-05 -.670E-05 0.101E-03
   0.471E-03 0.471E-03 0.426E-03   -.269E-03 -.269E-03 0.872E-03   -.339E-20 0.000E+00 0.000E+00   0.528E-05 0.528E-05 -.963E-04
   0.576E-03 0.576E-03 0.426E-03   0.215E-03 0.215E-03 0.872E-03   -.434E-20 -.127E-20 0.000E+00   -.670E-05 -.670E-05 -.963E-04
   0.324E-02 0.324E-02 0.178E-01   -.290E-13 -.313E-14 -.497E-13   0.868E-18 -.780E-17 -.121E-16   0.500E-05 0.500E-05 -.135E-05

 POSITION                                       TOTAL-FORCE (eV/Angst)
      0.00000      2.85396      3.70447         0.000000      0.000000      0.000000
      2.85396      0.00000      3.70447         0.000000      0.000000      0.000000
      2.85396      0.00000      0.00000         0.000000      0.000000      0.000000
      0.00000      2.85396      0.00000         0.000000      0.000000      0.000000
      2.85396      2.85396      3.70447         0.000000      0.000000      0.000000
      0.00000      0.00000      3.70447         0.000000      0.000000      0.000000
      2.85396      2.85396      0.00000         0.000000      0.000000      0.000000
      0.00000      0.00000      0.00000         0.000000      0.000000      0.000000
      1.42698      4.28094      5.55671         0.000000      0.000000      0.000000
      4.28094      1.42698      5.55671         0.000000      0.000000      0.000000
      4.28094      4.28094      1.85224         0.000000      0.000000      0.000000
      1.42698      1.42698      1.85224         0.000000      0.000000      0.000000
      1.42698      4.28094      1.85224         0.000000      0.000000      0.000000
      4.28094      1.42698      1.85224         0.000000      0.000000      0.000000
      4.28094      4.28094      5.55671         0.000000      0.000000      0.000000
      1.42698      1.42698      5.55671         0.000000      0.000000      0.000000
    total drift:                                0.003250      0.003250      0.017752

  FREE ENERGIE OF THE ION-ELECTRON SYSTEM (eV)
  free  energy   TOTEN  =      -116.50243230 eV

  energy  without entropy=     -116.50243230  energy(sigma->0) =     -116.50243230

 total charge

[...]

 magnetization (x)

# of ion     s       p       d       tot
  1       -0.004  -0.006   0.011   0.001
  2       -0.004  -0.006   0.011   0.001
  3       -0.004  -0.006   0.012   0.002
  4       -0.004  -0.006   0.011   0.002
  5       -0.004  -0.007   0.010   0.000
  6       -0.004  -0.007   0.010   0.000
  7       -0.004  -0.006   0.011   0.001
  8       -0.004  -0.006   0.010   0.000
  9       -0.007  -0.010   0.009  -0.007
 10       -0.007  -0.010   0.009  -0.007
 11       -0.007  -0.010   0.009  -0.008
 12       -0.007  -0.010   0.009  -0.008
 13        0.014   0.016   1.115   1.145
 14        0.014   0.015   1.121   1.151
 15        0.014   0.015   1.112   1.141
 16        0.014   0.015   1.107   1.136
tot        0.002  -0.030   4.577   4.549

 BZINTS: Fermi energy:  9.003173;148.000000 electrons
         Band energy: 122.864900;  BLOECHL correction: -0.047535