 vasp.5.2.2 15Apr09 complex
 executed on             LinuxIFC date 2012.06.25  23:20:50

 INCAR:
 POTCAR:   PAW_PBE Ge_d 06Sep2000
 POTCAR:   PAW_PBE Sr_sv 07Sep2000
 POTCAR:   PAW_PBE Ge_d 06Sep2000
   VRHFIN =Ge: 3d4s4p

   TITEL  = PAW_PBE Ge_d 06Sep2000
   POMASS =   72.610; ZVAL   =   14.000    mass and valenz
   ENMAX  =  287.568; ENMIN  =  215.676 eV
   QCUT   =   -4.597; QGAM   =    9.195    optimization parameters

   Description
     l     E      TYP  RCUT    TYP  RCUT
     2   .000     23  2.300
     2  -.100     23  2.300
     0   .000     23  2.300
     0   .000     23  2.300
     1   .000     23  2.300
     1   .000     23  2.300
     3  -.100      7  2.300

 POTCAR:   PAW_PBE Sr_sv 07Sep2000
   VRHFIN =Sr: 4s4p5s

   TITEL  = PAW_PBE Sr_sv 07Sep2000
   POMASS =   87.620; ZVAL   =   10.000    mass and valenz
   ENMAX  =  229.282; ENMIN  =  171.961 eV
   QCUT   =   -4.105; QGAM   =    8.210    optimization parameters

   Description
     l     E      TYP  RCUT    TYP  RCUT
     0   .000     23  2.480
     0   .000     23  2.480
     1   .000     23  2.500
     1   .000     23  2.500
     2   .000     23  2.500
     2   .000     23  2.500

 PAW_PBE Ge_d 06Sep2000                 :
 PAW_PBE Sr_sv 07Sep2000                :

 POSCAR: Ge Sr
  positions in direct lattice
 exchange correlation table for  LEXCH =        8
   RHO(1)=    0.500       N(1)  =     2000
   RHO(2)=  100.500       N(2)  =     4000

 ion  position               nearest neighbor table
   1  0.333  0.667  0.406-   2 2.56   2 2.56   2 2.56   3 3.16   3 3.16   3 3.16   3 3.88   3 3.88
                             3 3.88
   2  0.667  0.333  0.594-   1 2.56   1 2.56   1 2.56   3 3.16   3 3.16   3 3.16   3 3.88   3 3.88
                             3 3.88
   3  0.000  0.000  0.000-   1 3.16   2 3.16   1 3.16   2 3.16   2 3.16   1 3.16   2 3.88   1 3.88
                             1 3.88   2 3.88   2 3.88   1 3.88

  LATTYP: Found a hexagonal cell.
 ALAT       =     4.1042999439
 C/A-ratio  =     1.2585581148

  Lattice vectors:

 A1 = (   4.1043000000,   0.0000000000,   0.0000000000)
 A2 = (  -2.0521500000,   3.5544280000,   0.0000000000)
 A3 = (   0.0000000000,   0.0000000000,   5.1655000000)
 Subroutine PRICEL returns:
 Original cell was already a primitive cell.

Analysis of symmetry for initial positions (statically):

 Routine SETGRP: Setting up the symmetry group for a
 hexagonal supercell.

 Subroutine GETGRP returns: Found 12 space group operations
 (whereof 12 operations were pure point group operations)
 out of a pool of 24 trial point group operations.

The static configuration has the point symmetry D_3d.

Analysis of symmetry for dynamics (positions and initial velocities):

 Subroutine DYNSYM returns: Found 12 space group operations
 (whereof 12 operations were pure point group operations)
 out of a pool of 12 trial space group operations
 (whereof 12 operations were pure point group operations)
 and found also     1 'primitive' translations

The dynamic configuration has the point symmetry D_3d.

 KPOINTS: KPOINTS created by Atomic Simulation Env

Automatic generation of k-mesh.

 Subroutine IBZKPT returns following result:

 Found    144 irreducible k-points:

 Following reciprocal coordinates:
            Coordinates               Weight
  0.000000  0.000000  0.000000      1.000000
  0.071429  0.000000  0.000000      6.000000
  0.142857  0.000000  0.000000      6.000000
  0.214286  0.000000  0.000000      6.000000
  0.285714  0.000000  0.000000      6.000000
  0.357143  0.000000  0.000000      6.000000
  0.428571  0.000000  0.000000      6.000000
  0.500000  0.000000  0.000000      3.000000
  0.071429  0.071429  0.000000      6.000000
  0.142857  0.071429  0.000000     12.000000
  0.214286  0.071429  0.000000     12.000000
  0.285714  0.071429  0.000000     12.000000
  0.357143  0.071429  0.000000     12.000000
  0.428571  0.071429  0.000000     12.000000
  0.142857  0.142857  0.000000      6.000000
  0.214286  0.142857  0.000000     12.000000
  0.285714  0.142857  0.000000     12.000000
  0.357143  0.142857  0.000000     12.000000
  0.428571  0.142857  0.000000      6.000000
  0.214286  0.214286  0.000000      6.000000
  0.285714  0.214286  0.000000     12.000000
  0.357143  0.214286  0.000000     12.000000
  0.285714  0.285714  0.000000      6.000000
  0.357143  0.285714  0.000000      6.000000
  0.000000  0.000000  0.142857      2.000000
  0.071429  0.000000  0.142857      6.000000
  0.142857  0.000000  0.142857      6.000000
  0.214286  0.000000  0.142857      6.000000
  0.285714  0.000000  0.142857      6.000000
  0.357143  0.000000  0.142857      6.000000
  0.428571  0.000000  0.142857      6.000000
  0.500000  0.000000  0.142857      6.000000
 -0.428571  0.000000  0.142857      6.000000
 -0.357143  0.000000  0.142857      6.000000
 -0.285714  0.000000  0.142857      6.000000
 -0.214286  0.000000  0.142857      6.000000
 -0.142857  0.000000  0.142857      6.000000
 -0.071429  0.000000  0.142857      6.000000
  0.071429  0.071429  0.142857     12.000000
  0.142857  0.071429  0.142857     12.000000
  0.214286  0.071429  0.142857     12.000000
  0.285714  0.071429  0.142857     12.000000
  0.357143  0.071429  0.142857     12.000000
  0.428571  0.071429  0.142857     12.000000
  0.500000  0.071429  0.142857     12.000000
 -0.428571  0.071429  0.142857     12.000000
 -0.357143  0.071429  0.142857     12.000000
 -0.285714  0.071429  0.142857     12.000000
 -0.214286  0.071429  0.142857     12.000000
  0.142857  0.142857  0.142857     12.000000
  0.214286  0.142857  0.142857     12.000000
  0.285714  0.142857  0.142857     12.000000
  0.357143  0.142857  0.142857     12.000000
  0.428571  0.142857  0.142857     12.000000
  0.500000  0.142857  0.142857     12.000000
 -0.428571  0.142857  0.142857     12.000000
 -0.357143  0.142857  0.142857     12.000000
  0.214286  0.214286  0.142857     12.000000
  0.285714  0.214286  0.142857     12.000000
  0.357143  0.214286  0.142857     12.000000
[...]
  0.142857  0.142857  0.428571     12.000000
  0.214286  0.142857  0.428571     12.000000
  0.285714  0.142857  0.428571     12.000000
  0.357143  0.142857  0.428571     12.000000
  0.428571  0.142857  0.428571     12.000000
  0.500000  0.142857  0.428571     12.000000
 -0.428571  0.142857  0.428571     12.000000
 -0.357143  0.142857  0.428571     12.000000
  0.214286  0.214286  0.428571     12.000000
  0.285714  0.214286  0.428571     12.000000
  0.357143  0.214286  0.428571     12.000000
  0.428571  0.214286  0.428571     12.000000
  0.500000  0.214286  0.428571     12.000000
  0.285714  0.285714  0.428571     12.000000
  0.357143  0.285714  0.428571     12.000000

 Following cartesian coordinates:
            Coordinates               Weight
  0.000000  0.000000  0.000000      1.000000
  0.017403  0.010048  0.000000      6.000000
  0.034807  0.020096  0.000000      6.000000
  0.052210  0.030143  0.000000      6.000000
  0.069613  0.040191  0.000000      6.000000
  0.087017  0.050239  0.000000      6.000000
  0.104420  0.060287  0.000000      6.000000
  0.121823  0.070335  0.000000      3.000000
  0.017403  0.030143  0.000000      6.000000
  0.034807  0.040191  0.000000     12.000000
  0.052210  0.050239  0.000000     12.000000
  0.069613  0.060287  0.000000     12.000000
  0.087017  0.070335  0.000000     12.000000
  0.104420  0.080383  0.000000     12.000000
  0.034807  0.060287  0.000000      6.000000
  0.052210  0.070335  0.000000     12.000000
  0.069613  0.080383  0.000000     12.000000
  0.087017  0.090430  0.000000     12.000000
  0.104420  0.100478  0.000000      6.000000
  0.052210  0.090430  0.000000      6.000000
  0.069613  0.100478  0.000000     12.000000
  0.087017  0.110526  0.000000     12.000000
  0.069613  0.120574  0.000000      6.000000
  0.087017  0.130622  0.000000      6.000000
  0.000000  0.000000  0.027656      2.000000
  0.017403  0.010048  0.027656      6.000000
  0.034807  0.020096  0.027656      6.000000
  0.052210  0.030143  0.027656      6.000000
  0.069613  0.040191  0.027656      6.000000
  0.087017  0.050239  0.027656      6.000000
  0.104420  0.060287  0.027656      6.000000
  0.121823  0.070335  0.027656      6.000000
 -0.104420 -0.060287  0.027656      6.000000
 -0.087017 -0.050239  0.027656      6.000000
 -0.069613 -0.040191  0.027656      6.000000
 -0.052210 -0.030143  0.027656      6.000000
 -0.034807 -0.020096  0.027656      6.000000
 -0.017403 -0.010048  0.027656      6.000000
  0.017403  0.030143  0.027656     12.000000
  0.034807  0.040191  0.027656     12.000000
  0.052210  0.050239  0.027656     12.000000
  0.069613  0.060287  0.027656     12.000000
  0.087017  0.070335  0.027656     12.000000
  0.104420  0.080383  0.027656     12.000000
  0.121823  0.090430  0.027656     12.000000
 -0.104420 -0.040191  0.027656     12.000000
 -0.087017 -0.030143  0.027656     12.000000
 -0.069613 -0.020096  0.027656     12.000000
 -0.052210 -0.010048  0.027656     12.000000
  0.034807  0.060287  0.027656     12.000000
  0.052210  0.070335  0.027656     12.000000
  0.069613  0.080383  0.027656     12.000000
  0.087017  0.090430  0.027656     12.000000
  0.104420  0.100478  0.027656     12.000000
  0.121823  0.110526  0.027656     12.000000
 -0.104420 -0.020096  0.027656     12.000000
 -0.087017 -0.010048  0.027656     12.000000
  0.052210  0.090430  0.027656     12.000000
  0.069613  0.100478  0.027656     12.000000
  0.087017  0.110526  0.027656     12.000000
[...]
  0.034807  0.060287  0.082968     12.000000
  0.052210  0.070335  0.082968     12.000000
  0.069613  0.080383  0.082968     12.000000
  0.087017  0.090430  0.082968     12.000000
  0.104420  0.100478  0.082968     12.000000
  0.121823  0.110526  0.082968     12.000000
 -0.104420 -0.020096  0.082968     12.000000
 -0.087017 -0.010048  0.082968     12.000000
  0.052210  0.090430  0.082968     12.000000
  0.069613  0.100478  0.082968     12.000000
  0.087017  0.110526  0.082968     12.000000
  0.104420  0.120574  0.082968     12.000000
  0.121823  0.130622  0.082968     12.000000
  0.069613  0.120574  0.082968     12.000000
  0.087017  0.130622  0.082968     12.000000

 I would recommend the setting:
   dimension x,y,z NGX =    17 NGY =   17 NGZ =   21
 SYSTEM =  unknown system
 POSCAR =  Ge Sr

 Startparameter for this run:
   NWRITE =      2    write-flag & timer
   PREC   = low       medium, high low
   ISTART =      0    job   : 0-new  1-cont  2-samecut
   ICHARG =      1    charge: 1-file 2-atom 10-const
   ISPIN  =      1    spin polarized calculation?
   LNONCOLLINEAR =      F non collinear calculations
   LSORBIT =      F    spin-orbit coupling
   INIWAV =      1    electr: 0-lowe 1-rand  2-diag
   LASPH  =      F    aspherical Exc in radial PAW
   METAGGA=      F    non-selfconsistent MetaGGA calc.

 Electronic Relaxation 1
   ENCUT  =  287.0 eV  21.09 Ry    4.59 a.u.   5.67  5.67  7.14*2*pi/ulx,y,z
   ENINI  =  287.0     initial cutoff
   ENAUG  =  531.4 eV  augmentation charge cutoff
   NELM   =     60;   NELMIN=  2; NELMDL=  0     # of ELM steps
   EDIFF  = 0.1E-03   stopping-criterion for ELM
   LREAL  =      F    real-space projection
   LCOMPAT=      F    compatible to vasp.4.4
[...]

 position of ions in fractional coordinates (direct lattice)
   0.33333300  0.66666700  0.40600000
   0.66666700  0.33333300  0.59400000
   0.00000000  0.00000000  0.00000000

 position of ions in cartesian coordinates  (Angst):
  -0.00000205  2.36961985  2.09719300
   2.05215205  1.18480815  3.06830700
   0.00000000  0.00000000  0.00000000

 k-point  1 :  0.00000.00000.0000  plane waves:     843
 k-point  2 :  0.07140.00000.0000  plane waves:     827
 k-point  3 :  0.14290.00000.0000  plane waves:     826
 k-point  4 :  0.21430.00000.0000  plane waves:     832
 k-point  5 :  0.28570.00000.0000  plane waves:     828
 k-point  6 :  0.35710.00000.0000  plane waves:     840
 k-point  7 :  0.42860.00000.0000  plane waves:     838
 k-point  8 :  0.50000.00000.0000  plane waves:     840
 k-point  9 :  0.07140.07140.0000  plane waves:     827
 k-point 10 :  0.14290.07140.0000  plane waves:     831
 k-point 11 :  0.21430.07140.0000  plane waves:     829
 k-point 12 :  0.28570.07140.0000  plane waves:     830
 k-point 13 :  0.35710.07140.0000  plane waves:     833
 k-point 14 :  0.42860.07140.0000  plane waves:     836
 k-point 15 :  0.14290.14290.0000  plane waves:     827
 k-point 16 :  0.21430.14290.0000  plane waves:     828
 k-point 17 :  0.28570.14290.0000  plane waves:     823
 k-point 18 :  0.35710.14290.0000  plane waves:     836
 k-point 19 :  0.42860.14290.0000  plane waves:     834
 k-point 20 :  0.21430.21430.0000  plane waves:     824
 k-point 21 :  0.28570.21430.0000  plane waves:     831
 k-point 22 :  0.35710.21430.0000  plane waves:     829
 k-point 23 :  0.28570.28570.0000  plane waves:     830
 k-point 24 :  0.35710.28570.0000  plane waves:     820
 k-point 25 :  0.00000.00000.1429  plane waves:     824
 k-point 26 :  0.07140.00000.1429  plane waves:     831
 k-point 27 :  0.14290.00000.1429  plane waves:     834
 k-point 28 :  0.21430.00000.1429  plane waves:     832
 k-point 29 :  0.28570.00000.1429  plane waves:     833
 k-point 30 :  0.35710.00000.1429  plane waves:     834
 k-point 31 :  0.42860.00000.1429  plane waves:     832
 k-point 32 :  0.50000.00000.1429  plane waves:     834
 k-point 33 :  -.42860.00000.1429  plane waves:     832
 k-point 34 :  -.35710.00000.1429  plane waves:     834
 k-point 35 :  -.28570.00000.1429  plane waves:     833
 k-point 36 :  -.21430.00000.1429  plane waves:     832
 k-point 37 :  -.14290.00000.1429  plane waves:     834
 k-point 38 :  -.07140.00000.1429  plane waves:     831
 k-point 39 :  0.07140.07140.1429  plane waves:     831
 k-point 40 :  0.14290.07140.1429  plane waves:     826
 k-point 41 :  0.21430.07140.1429  plane waves:     833
 k-point 42 :  0.28570.07140.1429  plane waves:     833
 k-point 43 :  0.35710.07140.1429  plane waves:     831
 k-point 44 :  0.42860.07140.1429  plane waves:     836
 k-point 45 :  0.50000.07140.1429  plane waves:     836
 k-point 46 :  -.42860.07140.1429  plane waves:     831
 k-point 47 :  -.35710.07140.1429  plane waves:     833
 k-point 48 :  -.28570.07140.1429  plane waves:     833
 k-point 49 :  -.21430.07140.1429  plane waves:     826
 k-point 50 :  0.14290.14290.1429  plane waves:     834
 k-point 51 :  0.21430.14290.1429  plane waves:     832
 k-point 52 :  0.28570.14290.1429  plane waves:     829
 k-point 53 :  0.35710.14290.1429  plane waves:     828
 k-point 54 :  0.42860.14290.1429  plane waves:     834
 k-point 55 :  0.50000.14290.1429  plane waves:     828
 k-point 56 :  -.42860.14290.1429  plane waves:     829
 k-point 57 :  -.35710.14290.1429  plane waves:     832
 k-point 58 :  0.21430.21430.1429  plane waves:     831
 k-point 59 :  0.28570.21430.1429  plane waves:     827
 k-point 60 :  0.35710.21430.1429  plane waves:     828
[...]
 k-point 85 :  0.50000.07140.2857  plane waves:     831
 k-point 86 :  -.42860.07140.2857  plane waves:     833
 k-point 87 :  -.35710.07140.2857  plane waves:     832
 k-point 88 :  -.28570.07140.2857  plane waves:     837
 k-point 89 :  -.21430.07140.2857  plane waves:     837
 k-point 90 :  0.14290.14290.2857  plane waves:     835
 k-point 91 :  0.21430.14290.2857  plane waves:     831
 k-point 92 :  0.28570.14290.2857  plane waves:     828
 k-point 93 :  0.35710.14290.2857  plane waves:     831
 k-point 94 :  0.42860.14290.2857  plane waves:     833
 k-point 95 :  0.50000.14290.2857  plane waves:     831
 k-point 96 :  -.42860.14290.2857  plane waves:     828
 k-point 97 :  -.35710.14290.2857  plane waves:     831
 k-point 98 :  0.21430.21430.2857  plane waves:     830
 k-point 99 :  0.28570.21430.2857  plane waves:     831
 k-point ** :  0.35710.21430.2857  plane waves:     831
 k-point ** :  0.42860.21430.2857  plane waves:     831
 k-point ** :  0.50000.21430.2857  plane waves:     831
 k-point ** :  0.28570.28570.2857  plane waves:     828
 k-point ** :  0.35710.28570.2857  plane waves:     829
 k-point ** :  0.00000.00000.4286  plane waves:     836
 k-point ** :  0.07140.00000.4286  plane waves:     841
 k-point ** :  0.14290.00000.4286  plane waves:     843
 k-point ** :  0.21430.00000.4286  plane waves:     843
 k-point ** :  0.28570.00000.4286  plane waves:     833
 k-point ** :  0.35710.00000.4286  plane waves:     826
 k-point ** :  0.42860.00000.4286  plane waves:     834
 k-point ** :  0.50000.00000.4286  plane waves:     828
 k-point ** :  -.42860.00000.4286  plane waves:     834
 k-point ** :  -.35710.00000.4286  plane waves:     826
 k-point ** :  -.28570.00000.4286  plane waves:     833
 k-point ** :  -.21430.00000.4286  plane waves:     843
 k-point ** :  -.14290.00000.4286  plane waves:     843
 k-point ** :  -.07140.00000.4286  plane waves:     841
 k-point ** :  0.07140.07140.4286  plane waves:     848
 k-point ** :  0.14290.07140.4286  plane waves:     844
 k-point ** :  0.21430.07140.4286  plane waves:     838
 k-point ** :  0.28570.07140.4286  plane waves:     828
 k-point ** :  0.35710.07140.4286  plane waves:     833
 k-point ** :  0.42860.07140.4286  plane waves:     831
 k-point ** :  0.50000.07140.4286  plane waves:     831
 k-point ** :  -.42860.07140.4286  plane waves:     833
 k-point ** :  -.35710.07140.4286  plane waves:     828
 k-point ** :  -.28570.07140.4286  plane waves:     838
 k-point ** :  -.21430.07140.4286  plane waves:     844
 k-point ** :  0.14290.14290.4286  plane waves:     841
 k-point ** :  0.21430.14290.4286  plane waves:     838
 k-point ** :  0.28570.14290.4286  plane waves:     826
 k-point ** :  0.35710.14290.4286  plane waves:     829
 k-point ** :  0.42860.14290.4286  plane waves:     828
 k-point ** :  0.50000.14290.4286  plane waves:     829
 k-point ** :  -.42860.14290.4286  plane waves:     826
 k-point ** :  -.35710.14290.4286  plane waves:     838
 k-point ** :  0.21430.21430.4286  plane waves:     829
 k-point ** :  0.28570.21430.4286  plane waves:     833
 k-point ** :  0.35710.21430.4286  plane waves:     824
 k-point ** :  0.42860.21430.4286  plane waves:     824
 k-point ** :  0.50000.21430.4286  plane waves:     833
 k-point ** :  0.28570.28570.4286  plane waves:     834
 k-point ** :  0.35710.28570.4286  plane waves:     830

 maximum and minimum number of plane-waves per node :     218    198

 maximum number of plane-waves:     848
 maximal index in each direction:
   IXMAX=  6   IYMAX=  5   IZMAX=  7
   IXMIN= -6   IYMIN= -5   IZMIN= -7

 WARNING: aliasing errors must be expected set NGX to  26 to avoid them
 WARNING: aliasing errors must be expected set NGY to  22 to avoid them
 WARNING: aliasing errors must be expected set NGZ to  30 to avoid them
 aliasing errors are usually negligible using standard VASP settings
 and one can safely disregard these warnings

 parallel 3D FFT for wavefunctions:
    minimum data exchange during FFTs selected (reduces bandwidth)
 parallel 3D FFT for charge:
    minimum data exchange during FFTs selected (reduces bandwidth)

 Broyden mixing: mesh for mixing (old mesh)
   NGX = 11   NGY = 11   NGZ = 15
  (NGX  = 24   NGY  = 24   NGZ  = 30)
  gives a total of   1815 points

 initial charge density was supplied:
 charge density of overlapping atoms calculated
 number of electron   38.0000000 magnetization
 keeping initial charge density in first step

 Maximum index for augmentation-charges          147 (set IRDMAX)

 First call to EWALD:  gamma=   0.420
 Maximum number of real-space cells 3x 3x 2
 Maximum number of reciprocal cells 3x 3x 3

----------------------------------------- Iteration    1(   1)  ---------------------------------------

 eigenvalue-minimisations  :  8542
 total energy-change (2. order) : 0.4377111E+03  (-0.1076288E+04)
 number of electron   38.0000000 magnetization
 augmentation part    38.0000000 magnetization

 Free energy of the ion-electron system (eV)
  alpha Z        PSCENC =       245.64725995
  Ewald energy   TEWEN  =     -3274.49630721
  -1/2 Hartree   DENC   =     -1775.02425393
  -exchange  EXHF       =         0.00000000
  -V(xc)+E(xc)   XCENC  =       182.09304974
  PAW double counting   =      3744.93815827    -4585.83741732
  entropy T*S    EENTRO =        -0.00886786
  eigenvalues    EBANDS =      -134.84929623
  atomic energy  EATOM  =      6035.24873054
  free energy    TOTEN  =       437.71105597 eV

  energy without entropy =      437.71992383  energy(sigma->0) =      437.71548990

[...]

 eigenvalue-minimisations  :  7030
 total energy-change (2. order) :-0.3651060E+03  (-0.3450451E+03)
 number of electron   38.0000000 magnetization
 augmentation part    38.0000000 magnetization

[...]

 Broyden mixing:
  rms(total) = 0.35654E+00    rms(broyden)= 0.35591E+00
  rms(prec ) = 0.60908E+00
  weight for this iteration     100.00

[...]

 eigenvalues of (default mixing * dielectric matrix)
  average eigenvalue GAMMA=   2.4264
  2.4264

[...]

 eigenvalue-minimisations  : 10272
 total energy-change (2. order) : 0.3209938E-01  (-0.2393837E-01)
 number of electron   37.9995276 magnetization
 augmentation part    17.6533994 magnetization

[...]

 Broyden mixing:
  rms(total) = 0.59170E-03    rms(broyden)= 0.58344E-03
  rms(prec ) = 0.84958E-03
  weight for this iteration     100.00

 eigenvalues of (default mixing * dielectric matrix)
  average eigenvalue GAMMA=   1.8690
  3.8216  2.9869  2.3349  2.0864  1.4656  1.2467  1.2467  0.8162  0.8162

[...]

----------------------------------------- Iteration    1(  15)  ---------------------------------------

 eigenvalue-minimisations  :  8182
 total energy-change (2. order) :-0.6616458E-04  (-0.7575748E-04)
 number of electron   37.9995277 magnetization
 augmentation part    17.6307706 magnetization

 Free energy of the ion-electron system (eV)
  alpha Z        PSCENC =       245.64725995
  Ewald energy   TEWEN  =     -3274.49630721
  -1/2 Hartree   DENC   =     -1765.79535095
  -exchange  EXHF       =         0.00000000
  -V(xc)+E(xc)   XCENC  =       181.46440792
  PAW double counting   =      3870.60515147    -4721.51693906
  entropy T*S    EENTRO =        -0.00723471
  eigenvalues    EBANDS =      -583.54323943
  atomic energy  EATOM  =      6035.24873054
  free energy    TOTEN  =       -12.39352146 eV

  energy without entropy =      -12.38628675  energy(sigma->0) =      -12.38990411

 average (electrostatic) potential at core
  the test charge radii are     0.9911  1.1929
  (the norm of the test charge is              1.0000)
       1 -31.1401       2 -31.1401       3 -38.1766

 E-fermi :   3.7147     XC(G=0):  -9.8135     alpha+bet : -9.5236
   add alpha+bet to get absolut eigen values

 k-point   1 :       0.0000    0.0000    0.0000
  band No.  band energies     occupation
      1     -32.1085      2.00000
      2     -21.1824      2.00000
      3     -21.1821      2.00000
      4     -21.1168      2.00000
      5     -21.1165      2.00000
      6     -21.0361      2.00000
      7     -21.0202      2.00000
      8     -20.9875      2.00000
      9     -20.9873      2.00000
     10     -20.9640      2.00000
     11     -20.9638      2.00000
     12     -14.3392      2.00000
     13     -14.0978      2.00000
     14     -14.0978      2.00000
     15      -8.0703      2.00000
     16      -1.0740      2.00000
     17       1.7059      2.00000
     18       2.2589      2.00000
     19       2.2597      2.00000
     20       3.8131      0.48685
     21       6.0970      0.00000
     22       6.0974      0.00000
     23       6.9733      0.00000
     24       7.4777      0.00000

[...]

 k-point 144 :       0.3571    0.2857    0.4286
  band No.  band energies     occupation
      1     -32.0880      2.00000
      2     -21.2049      2.00000
      3     -21.1185      2.00000
      4     -21.1067      2.00000
      5     -21.0715      2.00000
      6     -21.0629      2.00000
      7     -21.0439      2.00000
      8     -21.0411      2.00000
      9     -20.9744      2.00000
     10     -20.9710      2.00000
     11     -20.9521      2.00000
     12     -14.3023      2.00000
     13     -14.2929      2.00000
     14     -14.2598      2.00000
     15      -5.3942      2.00000
     16      -4.8938      2.00000
     17      -0.4536      2.00000
     18       1.1791      2.00000
     19       1.3851      2.00000
     20       4.9386      0.00000
     21       6.4104      0.00000
     22       6.5524      0.00000
     23       7.7322      0.00000
     24       8.2381      0.00000

 soft charge-density along one line, spin component           1
         0         1         2         3         4         5         6         7         8         9
 total charge-density along one line

------------------------ aborting loop because EDIFF is reached ----------------------------------------

 total charge

# of ion     s       p       d       tot
  1        1.157   1.197   9.990  12.345
  2        1.157   1.197   9.990  12.345
  3        2.017   5.749   0.252   8.018
tot        4.332   8.144  20.232  32.708

  FREE ENERGIE OF THE ION-ELECTRON SYSTEM (eV)
  free  energy   TOTEN  =       -12.393521 eV

  energy  without entropy=      -12.386287  energy(sigma->0) =      -12.389904

  FORCE on cell =-STRESS in cart. coord.  units (eV):
  Direction    XX          YY          ZZ          XY          YZ          ZX
  Alpha Z   245.64726   245.64726   245.64726
  Ewald    -905.88771  -905.88543 -1462.72651     0.00196     0.00049    -0.00082
  Hartree   743.35836   743.35942   279.08221     0.00092     0.00024    -0.00040
  E(xc)    -202.89924  -202.89922  -202.98349     0.00002     0.00001    -0.00001
  Local      30.57249    30.55096  1047.61445    -0.01868    -0.00086     0.00112
  n-local   -59.18943   -59.92571   -59.05836     0.74036    -0.57964    -0.01270
  augment  -115.35003  -115.33546  -114.14136     0.01268    -0.00013     0.00042
  Kinetic   262.99577   267.34335   267.02499    -4.63554     0.53226    -0.17625
  Fock        0.00000     0.00000     0.00000     0.00000     0.00000     0.00000
  Total       1.05132     1.05132     0.45919     0.00000     0.00000     0.00000
  in kB      22.35245    22.35245     9.76304     0.00000     0.00000     0.00000

 VOLUME and BASIS-vectors are now :
  energy-cutoff  :      287.00
  volume of cell :       75.36
      direct lattice vectors                 reciprocal lattice vectors
     4.104300000  0.000000000  0.000000000     0.243646907  0.140669610  0.000000000
    -2.052150000  3.554428000  0.000000000     0.000000000  0.281339220  0.000000000
     0.000000000  0.000000000  5.165500000     0.000000000  0.000000000  0.193592101

  length of vectors
     4.104300000  4.104299944  5.165500000     0.281339216  0.281339220  0.193592101

 FORCES acting on ions
    electron-ion (+dipol)            ewald-force                    non-local-force                 convergence-correction
   -.585E-04 -.326E-03 0.197E+03   0.129E-02 -.756E-03 -.209E+03   -.347E-17 0.000E+00 0.126E+02   0.156E-06 -.899E-07 -.101E-02
   0.585E-04 0.326E-03 -.197E+03   -.129E-02 0.756E-03 0.209E+03   -.520E-17 0.000E+00 -.126E+02   -.156E-06 0.899E-07 0.101E-02
   -.982E-14 -.704E-14 -.838E-13   -.683E-14 -.698E-14 0.000E+00   0.000E+00 0.000E+00 0.000E+00   -.365E-13 -.553E-13 -.505E-14
   0.191E-11 0.112E-13 0.108E-10   -.124E-14 0.765E-14 0.284E-13   -.867E-17 0.000E+00 -.178E-14   -.294E-12 -.516E-12 0.347E-12

 POSITION                                       TOTAL-FORCE (eV/Angst)
      0.00000      2.36962      2.09719         0.000000      0.000000     -0.040978
      2.05215      1.18481      3.06831         0.000000      0.000000      0.040978
      0.00000      0.00000      0.00000         0.000000      0.000000      0.000000
    total drift:                                0.000000      0.000000      0.000000

 total charge

# of ion     s       p       d       tot
  1        1.157   1.197   9.990  12.345
  2        1.157   1.197   9.990  12.345
  3        2.017   5.749   0.252   8.018
tot        4.332   8.144  20.232  32.708