 vasp.5.3.2 13Sep12 (build Sep 19 2012 13:12:15) complex
 executed on              unknown date 2013.03.28  07:31:17

 INCAR:
 POTCAR:  PAW_PBE Rh 06Sep2000
 POTCAR:  PAW_PBE Sn_d 06Sep2000
 POTCAR:  PAW_PBE V 08Apr2002

 POTCAR:  PAW_PBE Rh 06Sep2000
   VRHFIN =Rh: s1 d8

   TITEL  = PAW_PBE Rh 06Sep2000
   POMASS =  102.906; ZVAL   =    9.000    mass and valenz
   ENMAX  =  229.000; ENMIN  =  171.750 eV
   QCUT   =   -4.103; QGAM   =    8.205    optimization parameters

   Description
     l     E      TYP  RCUT    TYP  RCUT
     2   .000     23  2.500
     2   .000     23  2.500
     0   .000     23  2.400
     0   .000     23  2.400
     1  -.200     23  2.500
     1   .000     23  2.500
     3   .000      7   .000

 POTCAR:  PAW_PBE Sn_d 06Sep2000
   VRHFIN =Sn: s2p2

   TITEL  = PAW_PBE Sn_d 06Sep2000
   POMASS =  118.710; ZVAL   =   14.000    mass and valenz
   ENMAX  =  241.090; ENMIN  =  180.817 eV
   QCUT   =   -4.209; QGAM   =    8.419    optimization parameters

[...]

 POTCAR:  PAW_PBE V 08Apr2002
   VRHFIN =V: p6 d4 s1

   TITEL  = PAW_PBE V 08Apr2002
   POMASS =   50.941; ZVAL   =    5.000    mass and valenz
   ENMAX  =  192.543; ENMIN  =  144.408 eV
   QCUT   =   -3.762; QGAM   =    7.524    optimization parameters

   Description
     l     E      TYP  RCUT    TYP  RCUT
     2   .000     23  2.700
     2   .000     23  2.700
     0   .000     23  2.700
     0  2.000     23  2.700
     1   .000     23  2.700
     1  2.000     23  2.700
     3   .000      7   .000

PAW_PBE Rh 06Sep2000                    :
PAW_PBE Sn_d 06Sep2000                  :
PAW_PBE V 08Apr2002                     :

 POSCAR: Rh Sn V
  positions in direct lattice
 exchange correlation table for  LEXCH =        8
   RHO(1)=    0.500       N(1)  =     2000
   RHO(2)=  100.500       N(2)  =     4000

 ion  position               nearest neighbor table
   1  0.000  0.500  0.500-   9 2.73  10 2.73  11 2.73  12 2.73  13 2.73  14 2.73  15 2.73  16 2.73
                             5 2.87   6 2.87   6 2.87   5 2.87
   2  0.500  0.000  0.500-   9 2.73  10 2.73  11 2.73  12 2.73  13 2.73  14 2.73  15 2.73  16 2.73
                             5 2.87   6 2.87   5 2.87   6 2.87
   3  0.500  0.000  0.000-   9 2.73  10 2.73  11 2.73  12 2.73  13 2.73  14 2.73  15 2.73  16 2.73
                             7 2.87   8 2.87   7 2.87   8 2.87
   4  0.000  0.500  0.000-   9 2.73  10 2.73  11 2.73  12 2.73  13 2.73  14 2.73  15 2.73  16 2.73
                             7 2.87   8 2.87   8 2.87   7 2.87
   5  0.500  0.500  0.500-   9 2.73  10 2.73  11 2.73  12 2.73  13 2.73  14 2.73  15 2.73  16 2.73
                             1 2.87   2 2.87   2 2.87   1 2.87
   6  0.000  0.000  0.500-   9 2.73  10 2.73  11 2.73  12 2.73  13 2.73  14 2.73  15 2.73  16 2.73
                             1 2.87   2 2.87   1 2.87   2 2.87
   7  0.500  0.500  0.000-   9 2.73  10 2.73  11 2.73  12 2.73  13 2.73  14 2.73  15 2.73  16 2.73
                             3 2.87   4 2.87   3 2.87   4 2.87
   8  0.000  0.000  0.000-   9 2.73  10 2.73  11 2.73  12 2.73  13 2.73  14 2.73  15 2.73  16 2.73
                             3 2.87   4 2.87   4 2.87   3 2.87
   9  0.250  0.750  0.750-   1 2.73   2 2.73   3 2.73   4 2.73   5 2.73   6 2.73   7 2.73   8 2.73
                            15 2.87  16 2.87  16 2.87  15 2.87
  10  0.750  0.250  0.750-   1 2.73   2 2.73   3 2.73   4 2.73   5 2.73   6 2.73   7 2.73   8 2.73
                            15 2.87  16 2.87  15 2.87  16 2.87
  11  0.750  0.750  0.250-   1 2.73   2 2.73   3 2.73   4 2.73   5 2.73   6 2.73   7 2.73   8 2.73
                            13 2.87  14 2.87  14 2.87  13 2.87
  12  0.250  0.250  0.250-   1 2.73   2 2.73   3 2.73   4 2.73   5 2.73   6 2.73   7 2.73   8 2.73
                            13 2.87  14 2.87  13 2.87  14 2.87
  13  0.250  0.750  0.250-   1 2.73   2 2.73   3 2.73   4 2.73   5 2.73   6 2.73   7 2.73   8 2.73
                            11 2.87  12 2.87  12 2.87  11 2.87
  14  0.750  0.250  0.250-   1 2.73   2 2.73   3 2.73   4 2.73   5 2.73   6 2.73   7 2.73   8 2.73
                            11 2.87  12 2.87  11 2.87  12 2.87
  15  0.750  0.750  0.750-   1 2.73   2 2.73   3 2.73   4 2.73   5 2.73   6 2.73   7 2.73   8 2.73
                             9 2.87  10 2.87  10 2.87   9 2.87
  16  0.250  0.250  0.750-   1 2.73   2 2.73   3 2.73   4 2.73   5 2.73   6 2.73   7 2.73   8 2.73
                             9 2.87  10 2.87   9 2.87  10 2.87

  LATTYP: Found a simple tetragonal cell.
 ALAT       =     5.7450000000
 C/A-ratio  =     1.2691035683

  Lattice vectors:

 A1 = (   5.7450000000,   0.0000000000,   0.0000000000)
 A2 = (   0.0000000000,   5.7450000000,   0.0000000000)
 A3 = (   0.0000000000,   0.0000000000,   7.2910000000)

Analysis of symmetry for initial positions (statically):
 Subroutine PRICEL returns following result:

  LATTYP: Found a body centered tetragonal cell.
 ALAT       =     4.0623284579
 C/A-ratio  =     1.7947834784

[...]

   4 primitive cells build up your supercell.

 Routine SETGRP: Setting up the symmetry group for a
 simple tetragonal supercell.

 Subroutine GETGRP returns: Found 16 space group operations
 (whereof  8 operations were pure point group operations)
 out of a pool of 16 trial point group operations.

The static configuration has the point symmetry D_2d.
 The point group associated with its full space group is D_4h.

Analysis of symmetry for dynamics (positions and initial velocities):
 Subroutine PRICEL returns following result:

  LATTYP: Found a body centered tetragonal cell.
 ALAT       =     4.0623284579
 C/A-ratio  =     1.7947834784

  Lattice vectors:

 A1 = (   0.0000000000,  -2.8725000000,   3.6455000000)
 A2 = (   0.0000000000,   2.8725000000,   3.6455000000)
 A3 = (  -2.8725000000,   0.0000000000,  -3.6455000000)

   4 primitive cells build up your supercell.

 Routine SETGRP: Setting up the symmetry group for a
 simple tetragonal supercell.

 Subroutine GETGRP returns: Found 16 space group operations
 (whereof  8 operations were pure point group operations)
 out of a pool of 16 trial point group operations.

The dynamic configuration has the point symmetry D_2d.
 The point group associated with its full space group is D_4h.

Analysis of magnetic symmetry:

 Subroutine MAGSYM returns: Found 16 space group operations
 (whereof  8 operations were pure point group operations)
 out of a pool of 16 trial space group operations
 (whereof  8 operations were pure point group operations)
 and found also     4 'primitive' translations

The magnetic configuration has the point symmetry D_2d.
 The point group associated with its full space group is D_4h.

 KPOINTS: KPOINTS

Automatic generation of k-mesh.
Space group operators:
 irot       det(A)        alpha          n_x          n_y          n_z        tau_x        tau_y        tau_z
    1     1.000000     0.000000     1.000000     0.000000     0.000000    -0.000000     0.000000     0.000000
    2    -1.000000    90.000000     0.000000     0.000000    -1.000000    -0.000000     0.000000     0.000000
    3     1.000000   180.000000     0.000000     0.000000     1.000000    -0.000000     0.000000     0.000000
    4    -1.000000    90.000000     0.000000     0.000000     1.000000    -0.000000     0.000000     0.000000
    5     1.000000   180.000000     0.000000     1.000000     0.000000    -0.000000     0.000000     0.000000
    6    -1.000000   180.000000     0.707107     0.707107     0.000000    -0.000000     0.000000     0.000000
    7     1.000000   180.000000     1.000000     0.000000     0.000000    -0.000000     0.000000     0.000000
    8    -1.000000   180.000000     0.707107    -0.707107     0.000000    -0.000000     0.000000     0.000000
    9    -1.000000     0.000000     1.000000     0.000000     0.000000    -0.000000     0.000000     0.500000
   10     1.000000    90.000000     0.000000     0.000000    -1.000000    -0.000000     0.000000     0.500000
   11    -1.000000   180.000000     0.000000     0.000000     1.000000    -0.000000     0.000000     0.500000
   12     1.000000    90.000000     0.000000     0.000000     1.000000    -0.000000     0.000000     0.500000
   13    -1.000000   180.000000     0.000000     1.000000     0.000000    -0.000000     0.000000     0.500000
   14     1.000000   180.000000     0.707107     0.707107     0.000000    -0.000000     0.000000     0.500000
   15    -1.000000   180.000000     1.000000     0.000000     0.000000    -0.000000     0.000000     0.500000
   16     1.000000   180.000000     0.707107    -0.707107     0.000000    -0.000000     0.000000     0.500000

 Subroutine IBZKPT returns following result:

 Found     30 irreducible k-points:

 Following reciprocal coordinates:
            Coordinates               Weight
  0.000000  0.000000  0.000000      1.000000
  0.142857  0.000000  0.000000      4.000000
  0.285714  0.000000  0.000000      4.000000
  0.428571  0.000000  0.000000      4.000000
  0.142857  0.142857  0.000000      4.000000
  0.285714  0.142857  0.000000      8.000000
  0.428571  0.142857  0.000000      8.000000
  0.285714  0.285714  0.000000      4.000000
  0.428571  0.285714  0.000000      8.000000
  0.428571  0.428571  0.000000      4.000000
  0.000000  0.000000  0.200000      2.000000
  0.142857  0.000000  0.200000      8.000000
  0.285714  0.000000  0.200000      8.000000
  0.428571  0.000000  0.200000      8.000000
  0.142857  0.142857  0.200000      8.000000
  0.285714  0.142857  0.200000     16.000000
  0.428571  0.142857  0.200000     16.000000
  0.285714  0.285714  0.200000      8.000000
  0.428571  0.285714  0.200000     16.000000
  0.428571  0.428571  0.200000      8.000000
  0.000000  0.000000  0.400000      2.000000
  0.142857  0.000000  0.400000      8.000000
  0.285714  0.000000  0.400000      8.000000
  0.428571  0.000000  0.400000      8.000000
  0.142857  0.142857  0.400000      8.000000
  0.285714  0.142857  0.400000     16.000000
  0.428571  0.142857  0.400000     16.000000
  0.285714  0.285714  0.400000      8.000000
  0.428571  0.285714  0.400000     16.000000
  0.428571  0.428571  0.400000      8.000000

 Following cartesian coordinates:
            Coordinates               Weight
  0.000000  0.000000  0.000000      1.000000
  0.024866  0.000000  0.000000      4.000000
  0.049733  0.000000  0.000000      4.000000
  0.074599  0.000000  0.000000      4.000000
  0.024866  0.024866  0.000000      4.000000
  0.049733  0.024866  0.000000      8.000000
  0.074599  0.024866  0.000000      8.000000
  0.049733  0.049733  0.000000      4.000000
  0.074599  0.049733  0.000000      8.000000
  0.074599  0.074599  0.000000      4.000000
  0.000000  0.000000  0.027431      2.000000
  0.024866  0.000000  0.027431      8.000000
  0.049733  0.000000  0.027431      8.000000
  0.074599  0.000000  0.027431      8.000000
  0.024866  0.024866  0.027431      8.000000
  0.049733  0.024866  0.027431     16.000000
  0.074599  0.024866  0.027431     16.000000
  0.049733  0.049733  0.027431      8.000000
  0.074599  0.049733  0.027431     16.000000
  0.074599  0.074599  0.027431      8.000000
  0.000000  0.000000  0.054862      2.000000
  0.024866  0.000000  0.054862      8.000000
[...]

 initial charge density was supplied:
 charge density of overlapping atoms calculated
 number of electron     148.0000000 magnetization      60.0000000
 keeping initial charge density in first step

 Maximum index for augmentation-charges  134 (set IRDMAX)

 First call to EWALD:  gamma=   0.285
 Maximum number of real-space cells 3x 3x 2
 Maximum number of reciprocal cells 3x 3x 3

 FEWALD executed in parallel

----------------------------------------- Iteration    1(   1)  ---------------------------------------

 eigenvalue-minimisations  : 14600
 total energy-change (2. order) : 0.9063210E+03  (-0.3084551E+04)
 number of electron     148.0000000 magnetization      60.0000000
 augmentation part      148.0000000 magnetization      60.0000000

 Free energy of the ion-electron system (eV)
  alpha Z        PSCENC =       925.10232276
  Ewald energy   TEWEN  =    -12209.12187300
  -1/2 Hartree   DENC   =     -2552.19909580
  -exchange  EXHF       =         0.00000000
  -V(xc)+E(xc)   XCENC  =       -55.01621608
  PAW double counting   =     10150.01634036    -9766.87283966
  entropy T*S    EENTRO =        -0.16447671
  eigenvalues    EBANDS =      1234.81933588
  atomic energy  EATOM  =     13179.75745913
  free energy    TOTEN  =       906.32095688 eV

  energy without entropy =      906.48543359  energy(sigma->0) =      906.40319523

[...]

 eigenvalue-minimisations  : 14364
 total energy-change (2. order) :-0.8954161E+03  (-0.8179011E+03)
 number of electron     148.0000000 magnetization      60.0000000
 augmentation part      148.0000000 magnetization      60.0000000

[...]

 Broyden mixing:
  rms(total) = 0.55700E+01    rms(broyden)= 0.55683E+01
  rms(prec ) = 0.62272E+01
  weight for this iteration     100.00

[...]

 eigenvalues of (default mixing * dielectric matrix)
  average eigenvalue GAMMA=   0.7172
  0.7172

[...]

 eigenvalue-minimisations  : 15978
 total energy-change (2. order) : 0.1043215E-02  (-0.8988308E-04)
 number of electron     148.0005112 magnetization       5.1453870
 augmentation part       65.2083943 magnetization       3.4598401

 Broyden mixing:
  rms(total) = 0.86050E-02    rms(broyden)= 0.85337E-02
  rms(prec ) = 0.12283E-01
  weight for this iteration     100.00

 eigenvalues of (default mixing * dielectric matrix)
  average eigenvalue GAMMA=   1.0440
  2.1987  1.5688  0.2661  1.2637  0.8107  0.8107  0.8056  0.6274

[...]

----------------------------------------- Iteration    1(  14)  ---------------------------------------

 eigenvalue-minimisations  : 11064
 total energy-change (2. order) :-0.1341262E-04  (-0.1167397E-04)
 number of electron     148.0005112 magnetization       5.1453870
 augmentation part       65.2083943 magnetization       3.4598401

 Free energy of the ion-electron system (eV)
  alpha Z        PSCENC =       925.10232276
  Ewald energy   TEWEN  =    -12209.12187300
  -1/2 Hartree   DENC   =     -2400.02225879
  -exchange  EXHF       =         0.00000000
  -V(xc)+E(xc)   XCENC  =       -88.27416895
  PAW double counting   =     11122.86778013   -10755.63793806
  entropy T*S    EENTRO =        -0.27207199
  eigenvalues    EBANDS =       112.18075165
  atomic energy  EATOM  =     13179.75745913
  free energy    TOTEN  =      -113.41999712 eV

  energy without entropy =     -113.14792513  energy(sigma->0) =     -113.28396113

 average (electrostatic) potential at core
  the test charge radii are     1.1806  1.0894  1.2064
  (the norm of the test charge is              1.0000)
       1 -46.3727       2 -46.3727       3 -46.3727       4 -46.3727       5 -46.3727
       6 -46.3727       7 -46.3727       8 -46.3727       9 -98.5144      10 -98.5144
      11 -98.5144      12 -98.5144      13 -37.2685      14 -37.2685      15 -37.2685
      16 -37.2685

 E-fermi :   9.0305     XC(G=0): -12.8493     alpha+bet :-16.0878

 spin component 1

 k-point   1 :       0.0000    0.0000    0.0000
  band No.  band energies     occupation
      1     -12.7043      1.00000
      2     -12.7043      1.00000
      3     -12.6888      1.00000
      4     -12.6653      1.00000
      5     -12.6653      1.00000
      6     -12.6596      1.00000
      7     -12.6596      1.00000
      8     -12.6568      1.00000
      9     -12.6568      1.00000
     10     -12.6517      1.00000
     11     -12.6225      1.00000
     12     -12.6149      1.00000
     13     -12.6034      1.00000
     14     -12.5921      1.00000
     15     -12.5921      1.00000
     16     -12.5700      1.00000
     17     -12.5700      1.00000
     18     -12.5549      1.00000
     19     -12.5496      1.00000
     20     -12.5496      1.00000
     21      -1.5416      1.00000
     22       0.0500      1.00000
     23       0.5463      1.00000
     24       0.5463      1.00000
     25       2.6448      1.00000
     26       3.2350      1.00000
     27       3.2350      1.00000
     28       3.8324      1.00000
     29       4.2763      1.00000
     30       4.3497      1.00000
     31       4.3898      1.00000
     32       4.3898      1.00000
     33       4.5997      1.00000
     34       4.6856      1.00000
     35       4.6856      1.00000
     36       4.8503      1.00000
     37       4.8503      1.00000
     38       4.9378      1.00000
     39       5.1257      1.00000
     40       5.2813      1.00000
     41       5.2813      1.00000
     42       5.3436      1.00000
     43       5.3436      1.00000
     44       5.3702      1.00000
     45       5.3702      1.00000
     46       6.1229      1.00000
     47       6.1229      1.00000
     48       6.5718      1.00000
     49       6.5718      1.00000
     50       6.7175      1.00000
     51       6.7175      1.00000
     52       6.8716      1.00000
     53       6.8716      1.00000
     54       6.8882      1.00000
     55       6.8882      1.00000
     56       7.2161      1.00000
     57       7.2183      1.00000
     58       7.2183      1.00000
     59       7.2443      1.00000
     60       7.2443      1.00000
[...]
    104      15.5760      0.00000
    105      16.1473      0.00000
    106      16.3815      0.00000
    107      18.0770      0.00000
    108      18.1270      0.00000
    109      18.1322      0.00000
    110      18.7650      0.00000
    111      18.7670      0.00000
    112      19.0890      0.00000
    113      19.1288      0.00000
    114      19.1353      0.00000
    115      19.1637      0.00000
    116      19.2085      0.00000
    117      19.3691      0.00000
    118      19.4996      0.00000

[...]

 spin component 2

[...]

 k-point  30 :       0.4286    0.4286    0.4000
  band No.  band energies     occupation
      1     -12.6916      1.00000
      2     -12.6814      1.00000
      3     -12.6814      1.00000
      4     -12.6781      1.00000
      5     -12.6731      1.00000
      6     -12.6713      1.00000
      7     -12.6713      1.00000
      8     -12.6595      1.00000
      9     -12.6560      1.00000
     10     -12.6534      1.00000
     11     -12.6534      1.00000
     12     -12.6385      1.00000
     13     -12.6253      1.00000
     14     -12.6253      1.00000
     15     -12.6155      1.00000
     16     -12.6102      1.00000
     17     -12.5889      1.00000
     18     -12.5877      1.00000
     19     -12.5732      1.00000
     20     -12.5732      1.00000
     21       0.1054      1.00000
     22       0.2578      1.00000
     23       0.2756      1.00000
     24       0.2756      1.00000
     25       3.1865      1.00000
     26       3.1865      1.00000
     27       3.2248      1.00000
     28       3.2620      1.00000
     29       4.3390      1.00000
     30       4.4121      1.00000
     31       4.4476      1.00000
     32       4.4476      1.00000
     33       4.8501      1.00000
     34       4.8906      1.00000
     35       4.8906      1.00000
     36       4.9809      1.00000
     37       5.5339      1.00000
     38       5.5537      1.00000
     39       5.5537      1.00000
     40       5.5988      1.00000
     41       5.7100      1.00000
     42       5.7642      1.00000
     43       5.8363      1.00000
     44       5.8363      1.00000
     45       5.8450      1.00000
     46       5.8906      1.00000
     47       5.9864      1.00000
     48       5.9864      1.00000
     49       6.1920      1.00000
     50       6.1920      1.00000
     51       6.3942      1.00000
     52       6.5028      1.00000
     53       6.5221      1.00000
     54       6.5413      1.00000
     55       6.5413      1.00000
     56       6.6540      1.00000
     57       6.6807      1.00000
     58       6.6807      1.00000
     59       6.6821      1.00000
     60       6.7110      1.00000
[...]
    104      15.6373      0.00000
    105      16.0391      0.00000
    106      16.0608      0.00000
    107      16.0608      0.00000
    108      16.6236      0.00000
    109      18.2182      0.00000
    110      18.4431      0.00000
    111      18.8002      0.00000
    112      18.8002      0.00000
    113      19.3674      0.00000
    114      19.3675      0.00000
    115      19.4250      0.00000
    116      20.1479      0.00000
    117      20.8102      0.00000
    118      20.8758      0.00000

 soft charge-density along one line, spin component 1
         0         1         2         3         4         5         6         7         8         9
 total charge-density along one line

 soft charge-density along one line, spin component 2
         0         1         2         3         4         5         6         7         8         9
 total charge-density along one line

------------------------ aborting loop because EDIFF is reached ----------------------------------------

 total charge

# of ion     s       p       d       tot
  1        0.374   0.385   7.438   8.198
  2        0.374   0.385   7.438   8.198
  3        0.374   0.385   7.438   8.198
  4        0.374   0.385   7.438   8.198
  5        0.374   0.385   7.438   8.198
  6        0.374   0.385   7.438   8.198
  7        0.374   0.385   7.438   8.198
  8        0.374   0.385   7.438   8.198
  9        1.067   1.345  10.203  12.615
 10        1.067   1.345  10.203  12.615
 11        1.067   1.345  10.203  12.615
 12        1.067   1.345  10.203  12.615
 13        0.448   0.590   3.428   4.466
 14        0.448   0.590   3.428   4.466
 15        0.448   0.590   3.428   4.466
 16        0.448   0.590   3.428   4.466
tot        9.059  10.817 114.032 133.907

 magnetization (x)

[...]

  FORCE on cell =-STRESS in cart. coord.  units (eV):
  Direction    XX          YY          ZZ          XY          YZ          ZX
  Alpha Z   925.10232   925.10232   925.10232
  Ewald   -4138.94213 -4138.94213 -3931.26699     0.00000    -0.00000     0.00000
  Hartree   753.53974   753.53974   892.85774     0.00000     0.00000     0.00000
  E(xc)    -719.20569  -719.20569  -719.87529    -0.00000     0.00000     0.00000
  Local     535.32744   535.32744   184.90489     0.00000     0.00000     0.00000
  n-local   -64.54565   -79.23596   -66.82509     1.48649    -0.78412     0.88820
  augment  1160.45003  1160.45003  1160.71523    -0.00000     0.00000     0.00000
  Kinetic  1479.14316  1476.10336  1478.12630    -0.17449     1.28646     3.70661
  Fock        0.00000     0.00000     0.00000     0.00000     0.00000     0.00000
  Total     -77.99583   -77.99583   -76.26087     0.00000     0.00000     0.00000
  in kB    -519.29580  -519.29580  -507.74446     0.00000     0.00000     0.00000

 VOLUME and BASIS-vectors are now :
  energy-cutoff  :      180.82
  volume of cell :      240.64
      direct lattice vectors                 reciprocal lattice vectors
     5.745000000  0.000000000  0.000000000     0.174064404  0.000000000  0.000000000
     0.000000000  5.745000000  0.000000000     0.000000000  0.174064404  0.000000000
     0.000000000  0.000000000  7.291000000     0.000000000  0.000000000  0.137155397

  length of vectors
     5.745000000  5.745000000  7.291000000     0.174064404  0.174064404  0.137155397

 FORCES acting on ions
    electron-ion (+dipol)            ewald-force                    non-local-force                 convergence-correction
   -.464E-15 0.772E-13 0.110E-12   -.178E-13 0.178E-13 0.114E-12   0.867E-18 0.108E-17 0.000E+00   -.132E-12 -.474E-14 -.122E-12
   0.102E-12 -.985E-14 0.107E-12   -.178E-13 0.178E-13 0.114E-12   -.867E-18 -.195E-17 0.173E-17   0.121E-12 -.298E-13 -.162E-12
   0.796E-13 0.215E-13 -.461E-14   -.213E-13 0.142E-13 -.711E-13   -.260E-17 0.217E-17 0.434E-17   0.426E-13 0.960E-13 0.171E-12
   0.696E-15 0.957E-13 0.143E-14   -.355E-13 0.284E-13 -.711E-13   0.130E-17 -.108E-17 0.000E+00   -.290E-13 -.577E-13 0.130E-12
   0.848E-13 0.102E-12 0.111E-12   -.355E-13 0.142E-13 -.924E-13   0.000E+00 -.867E-18 0.434E-17   0.140E-12 0.907E-14 -.114E-12
   -.394E-14 0.823E-14 0.107E-12   -.497E-13 0.000E+00 -.924E-13   -.130E-17 -.282E-17 -.173E-17   -.946E-13 0.948E-14 -.911E-13
   0.991E-13 0.628E-13 0.383E-15   -.178E-13 0.178E-13 0.107E-12   0.000E+00 0.651E-18 0.173E-17   0.521E-13 -.115E-12 0.121E-12
   0.131E-14 -.911E-14 0.133E-14   -.320E-13 0.355E-14 0.107E-12   0.867E-18 0.325E-17 0.000E+00   -.275E-13 0.652E-13 0.101E-12
   0.231E-12 0.619E-12 0.864E-12   0.420E-13 -.179E-13 -.415E-13   -.159E-21 0.397E-22 0.529E-22   0.393E-13 -.228E-13 0.315E-13
   0.697E-12 0.118E-11 -.641E-13   0.358E-13 -.247E-13 -.415E-13   0.238E-21 0.199E-22 0.926E-22   -.168E-12 -.456E-13 0.219E-13
   0.697E-12 0.330E-11 -.305E-11   0.483E-13 -.174E-13 -.682E-13   0.131E-21 0.000E+00 0.106E-21   -.256E-12 -.289E-13 0.171E-12
   0.233E-12 0.231E-12 0.288E-12   0.331E-13 -.242E-13 -.682E-13   0.529E-22 0.529E-22 0.794E-22   0.120E-12 -.884E-13 -.625E-13
   0.794E-14 -.752E-13 0.298E-13   0.138E-13 -.110E-13 -.601E-14   -.662E-23 -.149E-22 0.132E-22   0.544E-13 0.497E-13 -.937E-15
   0.164E-13 0.252E-12 -.220E-12   0.146E-13 -.118E-13 -.601E-14   0.199E-22 -.662E-23 0.132E-22   -.375E-13 0.262E-14 -.290E-14
   0.286E-13 0.581E-13 -.320E-12   0.151E-13 -.984E-14 0.914E-14   0.397E-22 0.827E-23 0.132E-22   -.858E-14 0.253E-13 -.493E-13
   0.687E-14 0.518E-14 0.303E-13   0.127E-13 -.107E-13 0.914E-14   -.223E-22 -.132E-22 0.132E-22   0.370E-13 0.506E-14 0.213E-13
   0.228E-11 0.592E-11 -.201E-11   -.120E-13 -.139E-13 -.995E-13   -.173E-17 0.434E-18 0.104E-16   -.147E-12 -.130E-12 0.164E-12

 POSITION                                       TOTAL-FORCE (eV/Angst)
      0.00000      2.87250      3.64550        -0.000000     -0.000000     -0.000000
      2.87250      0.00000      3.64550         0.000000     -0.000000      0.000000
      2.87250      0.00000      0.00000         0.000000     -0.000000     -0.000000
      0.00000      2.87250      0.00000         0.000000     -0.000000      0.000000
      2.87250      2.87250      3.64550        -0.000000     -0.000000     -0.000000
      0.00000      0.00000      3.64550        -0.000000     -0.000000     -0.000000
      2.87250      2.87250      0.00000         0.000000     -0.000000     -0.000000
      0.00000      0.00000      0.00000         0.000000     -0.000000     -0.000000
      1.43625      4.30875      5.46825         0.000000      0.000000     -0.000000
      4.30875      1.43625      5.46825        -0.000000      0.000000      0.000000
      4.30875      4.30875      1.82275         0.000000      0.000000     -0.000000
      1.43625      1.43625      1.82275        -0.000000     -0.000000      0.000000
      1.43625      4.30875      1.82275         0.000000     -0.000000     -0.000000
      4.30875      1.43625      1.82275        -0.000000     -0.000000      0.000000
      4.30875      4.30875      5.46825        -0.000000     -0.000000     -0.000000
      1.43625      1.43625      5.46825         0.000000     -0.000000      0.000000
    total drift:                                0.000000      0.000000     -0.000000

  FREE ENERGIE OF THE ION-ELECTRON SYSTEM (eV)
  free  energy   TOTEN  =      -113.41999712 eV

  energy  without entropy=     -113.14792513  energy(sigma->0) =     -113.28396113

 total charge

[...]

 magnetization (x)

# of ion     s       p       d       tot
  1       -0.004  -0.006   0.013   0.003
  2       -0.004  -0.006   0.013   0.003
  3       -0.004  -0.006   0.013   0.003
  4       -0.004  -0.006   0.013   0.003
  5       -0.004  -0.006   0.013   0.003
  6       -0.004  -0.006   0.013   0.003
  7       -0.004  -0.006   0.013   0.003
  8       -0.004  -0.006   0.013   0.003
  9       -0.006  -0.013   0.008  -0.011
 10       -0.006  -0.013   0.008  -0.011
 11       -0.006  -0.013   0.008  -0.011
 12       -0.006  -0.013   0.008  -0.011
 13        0.015   0.016   1.218   1.250
 14        0.015   0.016   1.218   1.250
 15        0.015   0.016   1.218   1.250
 16        0.015   0.016   1.218   1.250
tot        0.005  -0.037   5.012   4.980