 vasp.5.2.2 15Apr09 complex
 executed on             LinuxIFC date 2012.03.06  21:38:02

 INCAR:
 POTCAR:   PAW_PBE Ge_d 06Sep2000
 POTCAR:   PAW_PBE Sr_sv 07Sep2000
 POTCAR:   PAW_PBE Ge_d 06Sep2000
   VRHFIN =Ge: 3d4s4p

   TITEL  = PAW_PBE Ge_d 06Sep2000
   POMASS =   72.610; ZVAL   =   14.000    mass and valenz
   ENMAX  =  287.568; ENMIN  =  215.676 eV
   QCUT   =   -4.597; QGAM   =    9.195    optimization parameters

   Description
     l     E      TYP  RCUT    TYP  RCUT
     2   .000     23  2.300
     2  -.100     23  2.300
     0   .000     23  2.300
     0   .000     23  2.300
     1   .000     23  2.300
     1   .000     23  2.300
     3  -.100      7  2.300

 POTCAR:   PAW_PBE Sr_sv 07Sep2000
   VRHFIN =Sr: 4s4p5s

   TITEL  = PAW_PBE Sr_sv 07Sep2000
   POMASS =   87.620; ZVAL   =   10.000    mass and valenz
   ENMAX  =  229.282; ENMIN  =  171.961 eV
   QCUT   =   -4.105; QGAM   =    8.210    optimization parameters

   Description
     l     E      TYP  RCUT    TYP  RCUT
     0   .000     23  2.480
     0   .000     23  2.480
     1   .000     23  2.500
     1   .000     23  2.500
     2   .000     23  2.500
     2   .000     23  2.500

 PAW_PBE Ge_d 06Sep2000                 :
 PAW_PBE Sr_sv 07Sep2000                :

 POSCAR: Ge Sr
  positions in direct lattice
 exchange correlation table for  LEXCH =        8
   RHO(1)=    0.500       N(1)  =     2000
   RHO(2)=  100.500       N(2)  =     4000

 ion  position               nearest neighbor table
   1  0.333  0.667  0.406-   2 2.60   2 2.60   2 2.60   3 3.20   3 3.20   3 3.20   3 3.92   3 3.92
                             3 3.92
   2  0.667  0.333  0.594-   1 2.60   1 2.60   1 2.60   3 3.20   3 3.20   3 3.20   3 3.92   3 3.92
                             3 3.92
   3  0.000  0.000  0.000-   1 3.20   2 3.20   1 3.20   2 3.20   2 3.20   1 3.20   2 3.92   1 3.92
                             1 3.92   2 3.92   2 3.92   1 3.92

  LATTYP: Found a hexagonal cell.
 ALAT       =     4.1745881723
 C/A-ratio  =     1.2473583866

  Lattice vectors:

 A1 = (   4.1745882313,   0.0000000000,   0.0000000000)
 A2 = (  -2.0872941156,   3.6152993906,   0.0000000000)
 A3 = (   0.0000000000,   0.0000000000,   5.2072075675)
 Subroutine PRICEL returns:
 Original cell was already a primitive cell.

Analysis of symmetry for initial positions (statically):

 Routine SETGRP: Setting up the symmetry group for a
 hexagonal supercell.

 Subroutine GETGRP returns: Found 12 space group operations
 (whereof 12 operations were pure point group operations)
 out of a pool of 24 trial point group operations.

The static configuration has the point symmetry D_3d.

Analysis of symmetry for dynamics (positions and initial velocities):

 Subroutine DYNSYM returns: Found 12 space group operations
 (whereof 12 operations were pure point group operations)
 out of a pool of 12 trial space group operations
 (whereof 12 operations were pure point group operations)
 and found also     1 'primitive' translations

The dynamic configuration has the point symmetry D_3d.

 KPOINTS: KPOINTS created by Atomic Simulation Env

Automatic generation of k-mesh.

 Subroutine IBZKPT returns following result:

 Found    962 irreducible k-points:

 Following reciprocal coordinates:
            Coordinates               Weight
  0.000000  0.000000  0.000000      1.000000
  0.066667  0.000000  0.000000      2.000000
  0.133333  0.000000  0.000000      2.000000
  0.200000  0.000000  0.000000      2.000000
  0.266667  0.000000  0.000000      2.000000
  0.333333  0.000000  0.000000      2.000000
  0.400000  0.000000  0.000000      2.000000
  0.466667  0.000000  0.000000      2.000000
  0.000000  0.062500  0.000000      2.000000
  0.066667  0.062500  0.000000      2.000000
  0.133333  0.062500  0.000000      2.000000
  0.200000  0.062500  0.000000      2.000000
  0.266667  0.062500  0.000000      2.000000
  0.333333  0.062500  0.000000      2.000000
  0.400000  0.062500  0.000000      2.000000
  0.466667  0.062500  0.000000      2.000000
 -0.466667  0.062500  0.000000      2.000000
 -0.400000  0.062500  0.000000      2.000000
 -0.333333  0.062500  0.000000      2.000000
 -0.266667  0.062500  0.000000      2.000000
 -0.200000  0.062500  0.000000      2.000000
 -0.133333  0.062500  0.000000      2.000000
 -0.066667  0.062500  0.000000      2.000000
  0.000000  0.125000  0.000000      2.000000
  0.066667  0.125000  0.000000      2.000000
  0.133333  0.125000  0.000000      2.000000
  0.200000  0.125000  0.000000      2.000000
  0.266667  0.125000  0.000000      2.000000
  0.333333  0.125000  0.000000      2.000000
  0.400000  0.125000  0.000000      2.000000
  0.466667  0.125000  0.000000      2.000000
 -0.466667  0.125000  0.000000      2.000000
 -0.400000  0.125000  0.000000      2.000000
 -0.333333  0.125000  0.000000      2.000000
 -0.266667  0.125000  0.000000      2.000000
 -0.200000  0.125000  0.000000      2.000000
 -0.133333  0.125000  0.000000      2.000000
 -0.066667  0.125000  0.000000      2.000000
  0.000000  0.187500  0.000000      2.000000
  0.066667  0.187500  0.000000      2.000000
  0.133333  0.187500  0.000000      2.000000
  0.200000  0.187500  0.000000      2.000000
  0.266667  0.187500  0.000000      2.000000
  0.333333  0.187500  0.000000      2.000000
  0.400000  0.187500  0.000000      2.000000
  0.466667  0.187500  0.000000      2.000000
 -0.466667  0.187500  0.000000      2.000000
 -0.400000  0.187500  0.000000      2.000000
 -0.333333  0.187500  0.000000      2.000000
 -0.266667  0.187500  0.000000      2.000000
 -0.200000  0.187500  0.000000      2.000000
 -0.133333  0.187500  0.000000      2.000000
 -0.066667  0.187500  0.000000      2.000000
  0.000000  0.250000  0.000000      2.000000
  0.066667  0.250000  0.000000      2.000000
  0.133333  0.250000  0.000000      2.000000
  0.200000  0.250000  0.000000      2.000000
  0.266667  0.250000  0.000000      2.000000
  0.333333  0.250000  0.000000      2.000000
  0.400000  0.250000  0.000000      2.000000
[...]
 -0.466667  0.437500  0.500000      2.000000
 -0.400000  0.437500  0.500000      2.000000
 -0.333333  0.437500  0.500000      2.000000
 -0.266667  0.437500  0.500000      2.000000
 -0.200000  0.437500  0.500000      2.000000
 -0.133333  0.437500  0.500000      2.000000
 -0.066667  0.437500  0.500000      2.000000
  0.000000  0.500000  0.500000      1.000000
  0.066667  0.500000  0.500000      2.000000
  0.133333  0.500000  0.500000      2.000000
  0.200000  0.500000  0.500000      2.000000
  0.266667  0.500000  0.500000      2.000000
  0.333333  0.500000  0.500000      2.000000
  0.400000  0.500000  0.500000      2.000000
  0.466667  0.500000  0.500000      2.000000

 Following cartesian coordinates:
            Coordinates               Weight
  0.000000  0.000000  0.000000      1.000000
  0.015970  0.009220  0.000000      2.000000
  0.031939  0.018440  0.000000      2.000000
  0.047909  0.027660  0.000000      2.000000
  0.063879  0.036880  0.000000      2.000000
  0.079848  0.046100  0.000000      2.000000
  0.095818  0.055320  0.000000      2.000000
  0.111787  0.064541  0.000000      2.000000
  0.000000  0.017288  0.000000      2.000000
  0.015970  0.026508  0.000000      2.000000
  0.031939  0.035728  0.000000      2.000000
  0.047909  0.044948  0.000000      2.000000
  0.063879  0.054168  0.000000      2.000000
  0.079848  0.063388  0.000000      2.000000
  0.095818  0.072608  0.000000      2.000000
  0.111787  0.081828  0.000000      2.000000
 -0.111787 -0.047253  0.000000      2.000000
 -0.095818 -0.038033  0.000000      2.000000
 -0.079848 -0.028813  0.000000      2.000000
 -0.063879 -0.019593  0.000000      2.000000
 -0.047909 -0.010373  0.000000      2.000000
 -0.031939 -0.001153  0.000000      2.000000
 -0.015970  0.008068  0.000000      2.000000
  0.000000  0.034575  0.000000      2.000000
  0.015970  0.043795  0.000000      2.000000
  0.031939  0.053015  0.000000      2.000000
  0.047909  0.062236  0.000000      2.000000
  0.063879  0.071456  0.000000      2.000000
  0.079848  0.080676  0.000000      2.000000
  0.095818  0.089896  0.000000      2.000000
  0.111787  0.099116  0.000000      2.000000
 -0.111787 -0.029965  0.000000      2.000000
 -0.095818 -0.020745  0.000000      2.000000
 -0.079848 -0.011525  0.000000      2.000000
 -0.063879 -0.002305  0.000000      2.000000
 -0.047909  0.006915  0.000000      2.000000
 -0.031939  0.016135  0.000000      2.000000
 -0.015970  0.025355  0.000000      2.000000
  0.000000  0.051863  0.000000      2.000000
  0.015970  0.061083  0.000000      2.000000
  0.031939  0.070303  0.000000      2.000000
  0.047909  0.079523  0.000000      2.000000
  0.063879  0.088743  0.000000      2.000000
  0.079848  0.097963  0.000000      2.000000
  0.095818  0.107183  0.000000      2.000000
  0.111787  0.116403  0.000000      2.000000
 -0.111787 -0.012678  0.000000      2.000000
 -0.095818 -0.003458  0.000000      2.000000
 -0.079848  0.005763  0.000000      2.000000
 -0.063879  0.014983  0.000000      2.000000
 -0.047909  0.024203  0.000000      2.000000
 -0.031939  0.033423  0.000000      2.000000
 -0.015970  0.042643  0.000000      2.000000
  0.000000  0.069151  0.000000      2.000000
  0.015970  0.078371  0.000000      2.000000
  0.031939  0.087591  0.000000      2.000000
  0.047909  0.096811  0.000000      2.000000
  0.063879  0.106031  0.000000      2.000000
  0.079848  0.115251  0.000000      2.000000
  0.095818  0.124471  0.000000      2.000000
[...]
 -0.111787  0.056473  0.096021      2.000000
 -0.095818  0.065693  0.096021      2.000000
 -0.079848  0.074913  0.096021      2.000000
 -0.063879  0.084133  0.096021      2.000000
 -0.047909  0.093353  0.096021      2.000000
 -0.031939  0.102573  0.096021      2.000000
 -0.015970  0.111793  0.096021      2.000000
  0.000000  0.138301  0.096021      1.000000
  0.015970  0.147521  0.096021      2.000000
  0.031939  0.156741  0.096021      2.000000
  0.047909  0.165961  0.096021      2.000000
  0.063879  0.175181  0.096021      2.000000
  0.079848  0.184402  0.096021      2.000000
  0.095818  0.193622  0.096021      2.000000
  0.111787  0.202842  0.096021      2.000000

 I would recommend the setting:
   dimension x,y,z NGX =    20 NGY =   20 NGZ =   25
 SYSTEM =  unknown system
 POSCAR =  Ge Sr

 Startparameter for this run:
   NWRITE =      2    write-flag & timer
   PREC   = med       medium, high low
   ISTART =      0    job   : 0-new  1-cont  2-samecut
   ICHARG =      1    charge: 1-file 2-atom 10-const
   ISPIN  =      1    spin polarized calculation?
   LNONCOLLINEAR =      F non collinear calculations
   LSORBIT =      F    spin-orbit coupling
   INIWAV =      1    electr: 0-lowe 1-rand  2-diag
   LASPH  =      F    aspherical Exc in radial PAW
   METAGGA=      F    non-selfconsistent MetaGGA calc.

 Electronic Relaxation 1
   ENCUT  =  373.0 eV  27.41 Ry    5.24 a.u.   6.57  6.57  8.20*2*pi/ulx,y,z
   ENINI  =  373.0     initial cutoff
   ENAUG  =  531.4 eV  augmentation charge cutoff
   NELM   =     60;   NELMIN=  5; NELMDL=  0     # of ELM steps
   EDIFF  = 0.1E-03   stopping-criterion for ELM
   LREAL  =      F    real-space projection
   LCOMPAT=      F    compatible to vasp.4.4
[...]
 k-point ** :  0.40000.00000.1250  plane waves:    1279
 k-point ** :  0.46670.00000.1250  plane waves:    1283
 k-point ** :  -.46670.00000.1250  plane waves:    1283
 k-point ** :  -.40000.00000.1250  plane waves:    1279
 k-point ** :  -.33330.00000.1250  plane waves:    1285
 k-point ** :  -.26670.00000.1250  plane waves:    1287
 k-point ** :  -.20000.00000.1250  plane waves:    1290
 k-point ** :  -.13330.00000.1250  plane waves:    1297
 k-point ** :  -.06670.00000.1250  plane waves:    1305
 k-point ** :  0.00000.06250.1250  plane waves:    1305
 k-point ** :  0.06670.06250.1250  plane waves:    1304
 k-point ** :  0.13330.06250.1250  plane waves:    1294
 k-point ** :  0.20000.06250.1250  plane waves:    1289
 k-point ** :  0.26670.06250.1250  plane waves:    1288
 k-point ** :  0.33330.06250.1250  plane waves:    1287
 k-point ** :  0.40000.06250.1250  plane waves:    1281
 k-point ** :  0.46670.06250.1250  plane waves:    1278
 k-point ** :  -.46670.06250.1250  plane waves:    1279
 k-point ** :  -.40000.06250.1250  plane waves:    1286
 k-point ** :  -.33330.06250.1250  plane waves:    1289
 k-point ** :  -.26670.06250.1250  plane waves:    1289
 k-point ** :  -.20000.06250.1250  plane waves:    1294
 k-point ** :  -.13330.06250.1250  plane waves:    1303
 k-point ** :  -.06670.06250.1250  plane waves:    1306
 k-point ** :  0.00000.12500.1250  plane waves:    1299
 k-point ** :  0.06670.12500.1250  plane waves:    1294
 k-point ** :  0.13330.12500.1250  plane waves:    1289
 k-point ** :  0.20000.12500.1250  plane waves:    1288
 k-point ** :  0.26670.12500.1250  plane waves:    1285
 k-point ** :  0.33330.12500.1250  plane waves:    1283
 k-point ** :  0.40000.12500.1250  plane waves:    1278
 k-point ** :  0.46670.12500.1250  plane waves:    1279
[...]
 k-point ** :  -.46670.43750.5000  plane waves:    1272
 k-point ** :  -.40000.43750.5000  plane waves:    1280
 k-point ** :  -.33330.43750.5000  plane waves:    1284
 k-point ** :  -.26670.43750.5000  plane waves:    1290
 k-point ** :  -.20000.43750.5000  plane waves:    1290
 k-point ** :  -.13330.43750.5000  plane waves:    1290
 k-point ** :  -.06670.43750.5000  plane waves:    1284
 k-point ** :  0.00000.50000.5000  plane waves:    1272
 k-point ** :  0.06670.50000.5000  plane waves:    1274
 k-point ** :  0.13330.50000.5000  plane waves:    1290
 k-point ** :  0.20000.50000.5000  plane waves:    1286
 k-point ** :  0.26670.50000.5000  plane waves:    1286
 k-point ** :  0.33330.50000.5000  plane waves:    1290
 k-point ** :  0.40000.50000.5000  plane waves:    1284
 k-point ** :  0.46670.50000.5000  plane waves:    1268

 maximum and minimum number of plane-waves per node :     344    306

 maximum number of plane-waves:    1318
 maximal index in each direction:
   IXMAX=  7   IYMAX=  7   IZMAX=  8
   IXMIN= -7   IYMIN= -7   IZMIN= -8

 WARNING: aliasing errors must be expected set NGX to  30 to avoid them
 WARNING: aliasing errors must be expected set NGY to  30 to avoid them
 WARNING: aliasing errors must be expected set NGZ to  34 to avoid them
 aliasing errors are usually negligible using standard VASP settings
 and one can safely disregard these warnings

 parallel 3D FFT for wavefunctions:
    minimum data exchange during FFTs selected (reduces bandwidth)
 parallel 3D FFT for charge:
    minimum data exchange during FFTs selected (reduces bandwidth)

 Broyden mixing: mesh for mixing (old mesh)
   NGX = 13   NGY = 13   NGZ = 17
  (NGX  = 32   NGY  = 32   NGZ  = 40)
  gives a total of   2873 points

 initial charge density was supplied:
 charge density of overlapping atoms calculated
 number of electron   38.0000000 magnetization
 keeping initial charge density in first step

 Maximum index for augmentation-charges          479 (set IRDMAX)

 First call to EWALD:  gamma=   0.414
 Maximum number of real-space cells 3x 3x 2
 Maximum number of reciprocal cells 3x 3x 3

----------------------------------------- Iteration    1(   1)  ---------------------------------------

 eigenvalue-minimisations  : 58792
 total energy-change (2. order) : 0.4991837E+03  (-0.1223267E+04)
 number of electron   38.0000000 magnetization
 augmentation part    38.0000000 magnetization

 Free energy of the ion-electron system (eV)
  alpha Z        PSCENC =       235.54305686
  Ewald energy   TEWEN  =     -3233.23971554
  -1/2 Hartree   DENC   =     -1796.42966732
  -exchange  EXHF       =         0.00000000
  -V(xc)+E(xc)   XCENC  =       181.75445539
  PAW double counting   =      3744.93815827    -4585.83741732
  entropy T*S    EENTRO =        -0.00011971
  eigenvalues    EBANDS =       -82.81955252
  atomic energy  EATOM  =      6035.27449509
  free energy    TOTEN  =       499.18369322 eV

  energy without entropy =      499.18381293  energy(sigma->0) =      499.18373312

[...]

 eigenvalue-minimisations  : 46986
 total energy-change (2. order) :-0.4067426E+03  (-0.3829039E+03)
 number of electron   38.0000000 magnetization
 augmentation part    38.0000000 magnetization

[...]

 Broyden mixing:
  rms(total) = 0.36205E+00    rms(broyden)= 0.36199E+00
  rms(prec ) = 0.61416E+00
  weight for this iteration     100.00

[...]

 eigenvalues of (default mixing * dielectric matrix)
  average eigenvalue GAMMA=   2.4152
  2.4152

[...]

 average (electrostatic) potential at core
  the test charge radii are     0.9911  1.1929
  (the norm of the test charge is              1.0000)
       1 -31.3888       2 -31.3888       3 -38.5429

 E-fermi :   3.4381     XC(G=0):  -9.6309     alpha+bet : -9.1319
   add alpha+bet to get absolut eigen values

 k-point   1 :       0.0000    0.0000    0.0000
  band No.  band energies     occupation
      1     -32.4561      2.00000
      2     -21.4145      2.00000
      3     -21.4145      2.00000
      4     -21.3568      2.00000
      5     -21.3567      2.00000
      6     -21.2834      2.00000
      7     -21.2707      2.00000
      8     -21.2443      2.00000
      9     -21.2442      2.00000
     10     -21.2234      2.00000
     11     -21.2234      2.00000
     12     -14.6583      2.00000
     13     -14.4502      2.00000
     14     -14.4502      2.00000
     15      -8.0617      2.00000
     16      -1.3921      2.00000
     17       1.5231      2.00000
     18       2.0207      2.00000
     19       2.0210      2.00000
     20       3.4128      1.21227
     21       5.7443      0.00000
     22       5.7460      0.00000
     23       6.7494      0.00000
     24       7.1831      0.00000

[...]

 soft charge-density along one line, spin component           1
         0         1         2         3         4         5         6         7         8         9
 total charge-density along one line

------------------------ aborting loop because EDIFF is reached ----------------------------------------

  FREE ENERGIE OF THE ION-ELECTRON SYSTEM (eV)
  free  energy   TOTEN  =       -12.415236 eV

  energy  without entropy=      -12.415711  energy(sigma->0) =      -12.415394

  FORCE on cell =-STRESS in cart. coord.  units (eV):
  Direction    XX          YY          ZZ          XY          YZ          ZX
  Alpha Z   235.54306   235.54306   235.54306
  Ewald    -897.98862  -897.98639 -1437.26850     0.00192     0.00048    -0.00080
  Hartree   746.47010   746.47116   295.10919     0.00092     0.00024    -0.00040
  E(xc)    -202.65692  -202.65663  -202.73653     0.00024     0.00000    -0.00001
  Local      29.92381    29.91686  1016.82882    -0.00603    -0.00071     0.00117
  n-local   -59.92449   -59.92183   -59.30678     0.00195    -0.00044    -0.00072
  augment  -115.39850  -115.39448  -114.17873     0.00348     0.00001    -0.00002
  Kinetic   263.80459   263.80574   265.76465     0.00147    -0.00112     0.00210
  Fock        0.00000     0.00000     0.00000     0.00000     0.00000     0.00000
  Total      -0.22474    -0.22474    -0.24482     0.00000     0.00000     0.00000
  in kB      -4.58173    -4.58173    -4.99115     0.00000     0.00000     0.00000

 VOLUME and BASIS-vectors are now :
  energy-cutoff  :      373.00
  volume of cell :       78.59
      direct lattice vectors                 reciprocal lattice vectors
     4.174588231  0.000000000  0.000000000     0.239544584  0.138301132  0.000000000
    -2.087294116  3.615299391  0.000000000     0.000000000  0.276602265  0.000000000
     0.000000000  0.000000000  5.207207568     0.000000000  0.000000000  0.192041509

[...]

 FORCES acting on ions
    electron-ion (+dipol)            ewald-force                    non-local-force                 convergence-correction
   0.154E-03 -.849E-04 0.186E+03   0.126E-02 -.736E-03 -.199E+03   -.142E-18 -.508E-19 0.121E+02   0.674E-07 -.392E-07 -.890E-02
   -.154E-03 0.849E-04 -.186E+03   -.126E-02 0.736E-03 0.199E+03   0.373E-19 0.474E-19 -.121E+02   -.674E-07 0.392E-07 0.890E-02
   -.659E-14 -.108E-14 0.209E-13   0.310E-14 0.812E-14 0.284E-13   -.847E-21 0.000E+00 0.000E+00   -.109E-13 0.330E-12 -.211E-12
   0.136E-11 0.378E-12 0.154E-10   0.450E-14 0.678E-14 -.284E-13   -.106E-18 -.339E-20 0.000E+00   -.130E-12 -.274E-13 -.193E-12

 POSITION                                       TOTAL-FORCE (eV/Angst)
      0.00000      2.41020      2.11158         0.000000      0.000000     -0.095333
      2.08730      1.20510      3.09563         0.000000      0.000000      0.095333
      0.00000      0.00000      0.00000         0.000000      0.000000      0.000000
    total drift:                                0.000000      0.000000      0.000000

 Quasi-Newton relaxation of ions (Broydens 2nd method)
  g(Force)  = 0.877E-03   g(Stress)= 0.259E-02

 Reset! Starting new Quasi-Newton update for ions

[...]

WARNING in EDDRMM: call to ZHEGV failed, returncode =   6  3 10

[...]

 POSITION                                       TOTAL-FORCE (eV/Angst)
      0.00000      2.40149      2.09868         0.000000      0.000000     -0.033489
      2.07975      1.20074      3.08802         0.000000      0.000000      0.033489
      0.00000      0.00000      0.00000         0.000000      0.000000      0.000000
    total drift:                                0.000000      0.000000      0.000000
 d Force = 0.5901398E-03[ 0.307E-03, 0.873E-03]  d Energy = 0.1360458E-02-0.770E-03
 d Force = 0.1825679E+01[ 0.183E+01, 0.182E+01]  d Ewald  = 0.1402678E+02-0.122E+02

[...]

 retain information from N=  1 steps
 eigenvalues of (default step * inverse Hessian matrix)
  average eigenvalue of G=   0.9322
 eigenvalue spectrum of G is  0.9322

[...]

 eigenvalue-minimisations  : 67806
 total energy-change (2. order) :-0.7733495E-03  (-0.2948410E-02)
 number of electron   38.0000287 magnetization
 augmentation part    17.6360579 magnetization

[...]

WARNING in EDDRMM: call to ZHEGV failed, returncode =   8  4  9

[...]

 Broyden mixing:
  rms(total) = 0.56725E-03    rms(broyden)= 0.56712E-03
  rms(prec ) = 0.86979E-03
  weight for this iteration     100.00

 eigenvalues of (default mixing * dielectric matrix)
  average eigenvalue GAMMA=   1.5654
  2.4605  1.1178  1.1178

[...]

----------------------------------------- Iteration    3(   5)  ---------------------------------------

 eigenvalue-minimisations  : 25975
 total energy-change (2. order) : 0.2608540E-06  (-0.1742216E-05)
 number of electron   38.0000287 magnetization
 augmentation part    17.6338385 magnetization

 Free energy of the ion-electron system (eV)
  alpha Z        PSCENC =       237.97097646
  Ewald energy   TEWEN  =     -3247.31336051
  -1/2 Hartree   DENC   =     -1778.59798262
  -exchange  EXHF       =         0.00000000
  -V(xc)+E(xc)   XCENC  =       181.23572886
  PAW double counting   =      3859.72222816    -4710.07043203
  entropy T*S    EENTRO =         0.00038543
  eigenvalues    EBANDS =      -590.63896602
  atomic energy  EATOM  =      6035.27449509
  free energy    TOTEN  =       -12.41692719 eV

  energy without entropy =      -12.41731262  energy(sigma->0) =      -12.41705566

 average (electrostatic) potential at core
  the test charge radii are     0.9911  1.1929
  (the norm of the test charge is              1.0000)
       1 -31.3331       2 -31.3331       3 -38.4499

 E-fermi :   3.5039     XC(G=0):  -9.6766     alpha+bet : -9.2260
   add alpha+bet to get absolut eigen values

[...]

 k-point 962 :       0.4667    0.5000    0.5000
  band No.  band energies     occupation
      1     -32.3530      2.00000
      2     -21.3704      2.00000
      3     -21.3339      2.00000
      4     -21.2800      2.00000
      5     -21.2795      2.00000
      6     -21.2540      2.00000
      7     -21.2242      2.00000
      8     -21.2174      2.00000
      9     -21.1826      2.00000
     10     -21.1696      2.00000
     11     -21.1634      2.00000
     12     -14.5961      2.00000
     13     -14.5499      2.00000
     14     -14.4145      2.00000
     15      -6.1496      2.00000
     16      -4.2815      2.00000
     17       0.3697      2.00000
     18       0.6972      2.00000
     19       0.9697      2.00000
     20       4.1766     -0.00002
     21       5.7112      0.00000
     22       6.3141      0.00000
     23       7.2388      0.00000
     24       8.6295      0.00000

 soft charge-density along one line, spin component           1
         0         1         2         3         4         5         6         7         8         9
 total charge-density along one line

------------------------ aborting loop because EDIFF is reached ----------------------------------------

  FREE ENERGIE OF THE ION-ELECTRON SYSTEM (eV)
  free  energy   TOTEN  =       -12.416927 eV

  energy  without entropy=      -12.417313  energy(sigma->0) =      -12.417056

  FORCE on cell =-STRESS in cart. coord.  units (eV):
  Direction    XX          YY          ZZ          XY          YZ          ZX
  Alpha Z   237.97098   237.97098   237.97098
  Ewald    -906.31311  -906.31090 -1434.69319     0.00189     0.00048    -0.00080
  Hartree   740.24399   740.24504   298.07206     0.00091     0.00024    -0.00040
  E(xc)    -202.71121  -202.71093  -202.78811     0.00024     0.00000    -0.00001
  Local      41.96154    41.95473  1008.84341    -0.00590    -0.00071     0.00117
  n-local   -60.08474   -60.08234   -59.46421     0.00186    -0.00063    -0.00045
  augment  -115.38452  -115.38056  -114.15967     0.00344     0.00000     0.00001
  Kinetic   264.20431   264.20564   266.07193     0.00113    -0.00154     0.00174
  Fock        0.00000     0.00000     0.00000     0.00000     0.00000     0.00000
  Total      -0.11055    -0.11055    -0.14680     0.00000     0.00000     0.00000
  in kB      -2.27701    -2.27701    -3.02369     0.00000     0.00000     0.00000

 VOLUME and BASIS-vectors are now :
  energy-cutoff  :      373.00
  volume of cell :       77.79
      direct lattice vectors                 reciprocal lattice vectors
     4.162546644  0.000000000  0.000000000     0.240237548  0.138701216  0.000000000
    -2.081273322  3.604871071  0.000000000     0.000000000  0.277402431  0.000000000
     0.000000000  0.000000000  5.183943586     0.000000000  0.000000000  0.192903334

  length of vectors
     4.162546644  4.162546586  5.183943586     0.277402428  0.277402431  0.192903334

 FORCES acting on ions
    electron-ion (+dipol)            ewald-force                    non-local-force                 convergence-correction
   0.151E-03 -.823E-04 0.187E+03   0.126E-02 -.735E-03 -.199E+03   0.983E-19 -.139E-20 0.122E+02   0.173E-06 -.100E-06 -.169E-01
   -.151E-03 0.823E-04 -.187E+03   -.126E-02 0.735E-03 0.199E+03   -.115E-18 0.139E-20 -.122E+02   -.173E-06 0.100E-06 0.169E-01
   -.357E-14 0.114E-13 0.210E-13   -.122E-14 -.870E-14 -.568E-13   -.529E-22 -.394E-27 0.000E+00   -.484E-13 -.976E-14 0.586E-13
   0.175E-11 -.337E-12 0.140E-10   -.258E-14 0.894E-15 0.770E-24   -.170E-19 -.226E-26 0.000E+00   -.144E-12 0.153E-12 -.638E-12

 POSITION                                       TOTAL-FORCE (eV/Angst)
      0.00000      2.40325      2.09604         0.000000      0.000000     -0.037641
      2.08128      1.20162      3.08790         0.000000      0.000000      0.037641
      0.00000      0.00000      0.00000         0.000000      0.000000      0.000000
    total drift:                                0.000000      0.000000      0.000000
 d Force = 0.1082708E-03[ 0.115E-03, 0.102E-03]  d Energy = 0.3310765E-03-0.223E-03
 d Force = 0.6072215E+00[ 0.606E+00, 0.608E+00]  d Ewald  = 0.4686645E-01 0.560E+00

 Quasi-Newton relaxation of ions (Broydens 2nd method)
  g(Force)  = 0.137E-03   g(Stress)= 0.740E-03

 retain information from N=  1 steps
 eigenvalues of (default step * inverse Hessian matrix)
  average eigenvalue of G=   0.1248
 eigenvalue spectrum of G is  0.1248

 reached required accuracy - stopping structural energy minimisation