 vasp.5.3.2 13Sep12 (build Mar 19 2013 12:21:59) complex

 executed on             LinuxIFC date 2013.05.09  17:53:10

 INCAR:
 POTCAR:  PAW_PBE Cr 06Sep2000
 POTCAR:  PAW_PBE In_d 06Sep2000
 POTCAR:  PAW_PBE O 08Apr2002
 POTCAR:  PAW_PBE Cr 06Sep2000
   VRHFIN =Cr : d5 s1

   TITEL  = PAW_PBE Cr 06Sep2000
   POMASS =   51.996; ZVAL   =    6.000    mass and valenz
   ENMAX  =  227.082; ENMIN  =  170.311 eV
   QCUT   =   -4.085; QGAM   =    8.171    optimization parameters

   Description
     l     E      TYP  RCUT    TYP  RCUT
     2   .000     23  2.500
     2   .000     23  2.500
     0   .000     23  2.500
     0   .000     23  2.500
     1  -.400     23  2.500
     1  2.000     23  2.500
     3   .000      7   .000

 POTCAR:  PAW_PBE In_d 06Sep2000
   VRHFIN =In: s2p1

   TITEL  = PAW_PBE In_d 06Sep2000
   POMASS =  114.820; ZVAL   =   13.000    mass and valenz
   ENMAX  =  239.218; ENMIN  =  179.413 eV
   QCUT   =   -4.193; QGAM   =    8.386    optimization parameters

[...]

 POTCAR:  PAW_PBE O 08Apr2002
   VRHFIN =O: s2p4

   TITEL  = PAW_PBE O 08Apr2002
   POMASS =   16.000; ZVAL   =    6.000    mass and valenz
   ENMAX  =  400.000; ENMIN  =  300.000 eV
   QCUT   =   -5.520; QGAM   =   11.041    optimization parameters

   Description
     l     E      TYP  RCUT    TYP  RCUT
     0   .000     23  1.200
     0  -.700     23  1.200
     1   .000     23  1.520
     1   .600     23  1.520
     2   .000      7  1.500

PAW_PBE Cr 06Sep2000                    :
PAW_PBE In_d 06Sep2000                  :
PAW_PBE O 08Apr2002                     :

 POSCAR: Cr O In
  positions in direct lattice
 exchange correlation table for  LEXCH =        8
   RHO(1)=    0.500       N(1)  =     2000
   RHO(2)=  100.500       N(2)  =     4000

 ion  position               nearest neighbor table
   1  1.000  1.000  0.500-  11 1.95   5 1.95   9 1.98  10 1.98   8 1.98   7 1.98   4 3.17   4 3.17

   2  0.631  0.369  0.737-  11 1.68   6 1.68   8 1.77   9 1.77   4 3.35   4 3.42   4 3.42
   3  0.369  0.631  0.263-   5 1.68  12 1.68   7 1.77  10 1.77   4 3.35   4 3.42   4 3.42
   4  0.000  0.000  0.000-  12 2.15   6 2.15  10 2.16   7 2.16   9 2.16   8 2.16   1 3.17   1 3.17
                             2 3.35   3 3.35   2 3.42   3 3.42   2 3.42   3 3.42
   5  0.249  0.751  0.484-   3 1.68   1 1.95
   6  0.726  0.274  0.973-   2 1.68   4 2.15
   7  0.230  0.244  0.268-   3 1.77   1 1.98   4 2.16
   8  0.244  0.230  0.732-   2 1.77   1 1.98   4 2.16
   9  0.770  0.756  0.732-   2 1.77   1 1.98   4 2.16
  10  0.756  0.770  0.268-   3 1.77   1 1.98   4 2.16
  11  0.751  0.249  0.516-   2 1.68   1 1.95
  12  0.274  0.726  0.027-   3 1.68   4 2.15

  LATTYP: Found a base centered monoclinic cell.
 ALAT       =     7.8298757680
 B/A-ratio  =     0.7164759910
 C/A-ratio  =     2.1487557672
 COS(beta)  =    -0.7529104601

  Lattice vectors:

 A1 = (  -3.9148540000,  -2.8049590000,  -0.0256280000)
 A2 = (  -3.9148540000,   2.8049590000,  -0.0256280000)
 A3 = (  15.6242640000,   0.0000000000,  -6.2406620000)

Analysis of symmetry for initial positions (statically):
 Subroutine PRICEL returns:
 Original cell was already a primitive cell.

 Routine SETGRP: Setting up the symmetry group for a
 base centered monoclinic supercell.

 Subroutine GETGRP returns: Found  3 space group operations
 (whereof  3 operations were pure point group operations)
 out of a pool of  4 trial point group operations.

The static configuration has the point symmetry C_3 .

Analysis of symmetry for dynamics (positions and initial velocities):
 Subroutine PRICEL returns:
 Original cell was already a primitive cell.

 Routine SETGRP: Setting up the symmetry group for a
 base centered monoclinic supercell.

 Subroutine GETGRP returns: Found  3 space group operations
 (whereof  3 operations were pure point group operations)
 out of a pool of  4 trial point group operations.

The dynamic configuration has the point symmetry C_3 .

Analysis of magnetic symmetry:

 Subroutine MAGSYM returns: Found  3 space group operations
 (whereof  3 operations were pure point group operations)
 out of a pool of  3 trial space group operations
 (whereof  3 operations were pure point group operations)
 and found also     1 'primitive' translations

The magnetic configuration has the point symmetry C_3 .

 KPOINTS: KPOINTS

Automatic generation of k-mesh.
Space group operators:
 irot       det(A)        alpha          n_x          n_y          n_z        tau_x        tau_y        tau_z
    1     1.000000     0.000000     1.000000     0.000000     0.000000     0.000000     0.000000     0.000000
    2     1.000000   180.000000     0.000000     1.000000     0.000000     0.000000     0.000000     0.000000
    3    -1.000000   180.000000     0.000000     1.000000     0.000000     0.000000     0.000000     0.000000

 Subroutine IBZKPT returns following result:

 Found    196 irreducible k-points:

 Following reciprocal coordinates:
            Coordinates               Weight
  0.000000  0.000000  0.000000      1.000000
  0.100000  0.000000  0.000000      4.000000
  0.200000  0.000000  0.000000      4.000000
  0.300000  0.000000  0.000000      4.000000
  0.400000  0.000000  0.000000      4.000000
  0.500000  0.000000  0.000000      2.000000
  0.100000  0.100000  0.000000      2.000000
  0.200000  0.100000  0.000000      4.000000
  0.300000  0.100000  0.000000      4.000000
  0.400000  0.100000  0.000000      4.000000
  0.500000  0.100000  0.000000      4.000000
 -0.400000  0.100000  0.000000      4.000000
 -0.300000  0.100000  0.000000      4.000000
 -0.200000  0.100000  0.000000      4.000000
 -0.100000  0.100000  0.000000      2.000000
  0.200000  0.200000  0.000000      2.000000
  0.300000  0.200000  0.000000      4.000000
  0.400000  0.200000  0.000000      4.000000
  0.500000  0.200000  0.000000      4.000000
 -0.400000  0.200000  0.000000      4.000000
 -0.300000  0.200000  0.000000      4.000000
 -0.200000  0.200000  0.000000      2.000000
  0.300000  0.300000  0.000000      2.000000
  0.400000  0.300000  0.000000      4.000000
  0.500000  0.300000  0.000000      4.000000
 -0.400000  0.300000  0.000000      4.000000
 -0.300000  0.300000  0.000000      2.000000
  0.400000  0.400000  0.000000      2.000000
  0.500000  0.400000  0.000000      4.000000
 -0.400000  0.400000  0.000000      2.000000
  0.500000  0.500000  0.000000      1.000000
  0.000000  0.000000  0.142857      2.000000
  0.100000  0.000000  0.142857      4.000000
  0.200000  0.000000  0.142857      4.000000
  0.300000  0.000000  0.142857      4.000000
  0.400000  0.000000  0.142857      4.000000
  0.500000  0.000000  0.142857      4.000000
 -0.400000  0.000000  0.142857      4.000000
 -0.300000  0.000000  0.142857      4.000000
 -0.200000  0.000000  0.142857      4.000000
 -0.100000  0.000000  0.142857      4.000000
  0.100000  0.100000  0.142857      4.000000
  0.200000  0.100000  0.142857      4.000000
  0.300000  0.100000  0.142857      4.000000
  0.400000  0.100000  0.142857      4.000000
  0.500000  0.100000  0.142857      4.000000
 -0.400000  0.100000  0.142857      4.000000
 -0.300000  0.100000  0.142857      4.000000
 -0.200000  0.100000  0.142857      4.000000
 -0.100000  0.100000  0.142857      2.000000
  0.100000  0.200000  0.142857      4.000000
  0.200000  0.200000  0.142857      4.000000
  0.300000  0.200000  0.142857      4.000000
  0.400000  0.200000  0.142857      4.000000
  0.500000  0.200000  0.142857      4.000000
 -0.400000  0.200000  0.142857      4.000000
 -0.300000  0.200000  0.142857      4.000000
 -0.200000  0.200000  0.142857      2.000000
  0.100000  0.300000  0.142857      4.000000
  0.200000  0.300000  0.142857      4.000000
[...]
  0.100000  0.500000  0.428571      4.000000
  0.200000  0.500000  0.428571      4.000000
  0.300000  0.500000  0.428571      4.000000
  0.400000  0.500000  0.428571      4.000000
  0.500000  0.500000  0.428571      2.000000
  0.100000 -0.400000  0.428571      4.000000
  0.200000 -0.400000  0.428571      4.000000
  0.300000 -0.400000  0.428571      4.000000
  0.400000 -0.400000  0.428571      2.000000
  0.100000 -0.300000  0.428571      4.000000
  0.200000 -0.300000  0.428571      4.000000
  0.300000 -0.300000  0.428571      2.000000
  0.100000 -0.200000  0.428571      4.000000
  0.200000 -0.200000  0.428571      2.000000
  0.100000 -0.100000  0.428571      2.000000

 Following cartesian coordinates:
            Coordinates               Weight
  0.000000  0.000000  0.000000      1.000000
  0.012772  0.017826 -0.000071      4.000000
  0.025545  0.035651 -0.000142      4.000000
  0.038317  0.053477 -0.000212      4.000000
  0.051089  0.071302 -0.000283      4.000000
  0.063862  0.089128 -0.000354      2.000000
  0.000000  0.035651  0.000000      2.000000
  0.012772  0.053477 -0.000071      4.000000
  0.025545  0.071302 -0.000142      4.000000
  0.038317  0.089128 -0.000212      4.000000
  0.051089  0.106953 -0.000283      4.000000
 -0.063862 -0.053477  0.000354      4.000000
 -0.051089 -0.035651  0.000283      4.000000
 -0.038317 -0.017826  0.000212      4.000000
 -0.025545  0.000000  0.000142      2.000000
  0.000000  0.071302  0.000000      2.000000
  0.012772  0.089128 -0.000071      4.000000
  0.025545  0.106953 -0.000142      4.000000
  0.038317  0.124779 -0.000212      4.000000
 -0.076634 -0.035651  0.000425      4.000000
 -0.063862 -0.017826  0.000354      4.000000
 -0.051089  0.000000  0.000283      2.000000
  0.000000  0.106953  0.000000      2.000000
  0.012772  0.124779 -0.000071      4.000000
  0.025545  0.142605 -0.000142      4.000000
 -0.089406 -0.017826  0.000495      4.000000
 -0.076634  0.000000  0.000425      2.000000
  0.000000  0.142605  0.000000      2.000000
  0.012772  0.160430 -0.000071      4.000000
 -0.102179  0.000000  0.000566      2.000000
  0.000000  0.178256  0.000000      1.000000
 -0.000147  0.000000  0.022522      2.000000
  0.012625  0.017826  0.022451      4.000000
  0.025397  0.035651  0.022381      4.000000
  0.038170  0.053477  0.022310      4.000000
  0.050942  0.071302  0.022239      4.000000
  0.063714  0.089128  0.022168      4.000000
 -0.051237 -0.071302  0.022805      4.000000
 -0.038464 -0.053477  0.022735      4.000000
 -0.025692 -0.035651  0.022664      4.000000
 -0.012920 -0.017826  0.022593      4.000000
 -0.000147  0.035651  0.022522      4.000000
  0.012625  0.053477  0.022451      4.000000
  0.025397  0.071302  0.022381      4.000000
  0.038170  0.089128  0.022310      4.000000
  0.050942  0.106953  0.022239      4.000000
 -0.064009 -0.053477  0.022876      4.000000
 -0.051237 -0.035651  0.022805      4.000000
 -0.038464 -0.017826  0.022735      4.000000
 -0.025692  0.000000  0.022664      2.000000
 -0.012920  0.053477  0.022593      4.000000
 -0.000147  0.071302  0.022522      4.000000
  0.012625  0.089128  0.022451      4.000000
  0.025397  0.106953  0.022381      4.000000
  0.038170  0.124779  0.022310      4.000000
 -0.076781 -0.035651  0.022947      4.000000
 -0.064009 -0.017826  0.022876      4.000000
 -0.051237  0.000000  0.022805      2.000000
 -0.025692  0.071302  0.022664      4.000000
 -0.012920  0.089128  0.022593      4.000000
[...]
 -0.051532  0.106953  0.067850      4.000000
[...]
  o =  0.9182  v = -0.0056  0.0000 -0.5607  0.0853  0.8236  0.0000  0.0000  0.0000  0.0000  0.0000      0.0000  0.0000  0.0000  0.0000  0.0000  0.0000  0.0000  0.0000  0.0000  0.0000
 BZINTS: Fermi energy:  3.855867; 79.000000 electrons
         Band energy:-345.867183;  BLOECHL correction:  0.000000

[...]

 eigenvalues of (default mixing * dielectric matrix)
  average eigenvalue GAMMA=   0.4817
  0.4817

[...]

 Broyden mixing:
  rms(total) = 0.62637E-02    rms(broyden)= 0.62576E-02
  rms(prec ) = 0.73472E-02
  weight for this iteration     100.00

 eigenvalues of (default mixing * dielectric matrix)
  average eigenvalue GAMMA=   0.9619
  2.2918  0.9257  0.9257  0.3402  0.6439  0.6439

[...]

----------------------------------------- Iteration    1(  12)  ---------------------------------------

atom =   1  type =  1  l = 2

[...]

  o =  0.1846  v =  0.0000  0.0000  0.0000  0.0000  0.0000 -0.0017 -0.0054 -0.4540  0.0947  0.8859      0.0000  0.0000  0.0000  0.0000  0.0000  0.0000  0.0000  0.0000  0.0000  0.0000
  o =  0.2550  v =  0.0000  0.0000  0.0000  0.0000  0.0000  0.0938 -0.9956  0.0031  0.0013 -0.0045      0.0000  0.0000  0.0000  0.0000  0.0000  0.0000  0.0000  0.0000  0.0000  0.0000
  o =  0.3592  v =  0.0000  0.0000  0.0000  0.0000  0.0000  0.9956  0.0938  0.0027  0.0033  0.0036      0.0000  0.0000  0.0000  0.0000  0.0000  0.0000  0.0000  0.0000  0.0000  0.0000
  o =  0.4359  v = -0.4110 -0.9116 -0.0025  0.0033 -0.0041  0.0000  0.0000  0.0000  0.0000  0.0000      0.0000  0.0000  0.0000  0.0000  0.0000  0.0000  0.0000  0.0000  0.0000  0.0000
  o =  0.4441  v =  0.0000  0.0000  0.0000  0.0000  0.0000  0.0031 -0.0015 -0.0063 -0.9946  0.1031      0.0000  0.0000  0.0000  0.0000  0.0000  0.0000  0.0000  0.0000  0.0000  0.0000
  o =  0.4566  v =  0.9116 -0.4110  0.0053  0.0019  0.0038  0.0000  0.0000  0.0000  0.0000  0.0000      0.0000  0.0000  0.0000  0.0000  0.0000  0.0000  0.0000  0.0000  0.0000  0.0000
  o =  0.4664  v =  0.0000  0.0000  0.0000  0.0000  0.0000  0.0042 -0.0004 -0.8910 -0.0412 -0.4522      0.0000  0.0000  0.0000  0.0000  0.0000  0.0000  0.0000  0.0000  0.0000  0.0000
  o =  0.5330  v =  0.0033 -0.0031 -0.3948 -0.9099 -0.1273  0.0000  0.0000  0.0000  0.0000  0.0000      0.0000  0.0000  0.0000  0.0000  0.0000  0.0000  0.0000  0.0000  0.0000  0.0000
  o =  0.5516  v = -0.0069 -0.0027  0.7618 -0.4017  0.5082  0.0000  0.0000  0.0000  0.0000  0.0000      0.0000  0.0000  0.0000  0.0000  0.0000  0.0000  0.0000  0.0000  0.0000  0.0000
  o =  0.9916  v = -0.0014 -0.0014 -0.5135  0.1037  0.8518  0.0000  0.0000  0.0000  0.0000  0.0000      0.0000  0.0000  0.0000  0.0000  0.0000  0.0000  0.0000  0.0000  0.0000  0.0000
atom =   3  type =  1  l = 2

 onsite density matrix

[...]

  0.3583  0.0097 -0.0006 -0.0003  0.0001
  0.0097  0.2560 -0.0001  0.0003  0.0004
 -0.0006 -0.0001  0.4083  0.0120  0.1134
 -0.0003  0.0003  0.0120  0.4418 -0.0213
  0.0001  0.0004  0.1134 -0.0213  0.2450

 occupancies and eigenvectors

  o =  0.1846  v =  0.0000  0.0000  0.0000  0.0000  0.0000 -0.0017 -0.0054 -0.4540  0.0947  0.8859      0.0000  0.0000  0.0000  0.0000  0.0000  0.0000  0.0000  0.0000  0.0000  0.0000
  o =  0.2550  v =  0.0000  0.0000  0.0000  0.0000  0.0000  0.0938 -0.9956  0.0031  0.0013 -0.0045      0.0000  0.0000  0.0000  0.0000  0.0000  0.0000  0.0000  0.0000  0.0000  0.0000
  o =  0.3592  v =  0.0000  0.0000  0.0000  0.0000  0.0000  0.9956  0.0938  0.0027  0.0033  0.0036      0.0000  0.0000  0.0000  0.0000  0.0000  0.0000  0.0000  0.0000  0.0000  0.0000
  o =  0.4359  v = -0.4110 -0.9116 -0.0025  0.0033 -0.0041  0.0000  0.0000  0.0000  0.0000  0.0000      0.0000  0.0000  0.0000  0.0000  0.0000  0.0000  0.0000  0.0000  0.0000  0.0000
  o =  0.4441  v =  0.0000  0.0000  0.0000  0.0000  0.0000  0.0031 -0.0015 -0.0063 -0.9946  0.1031      0.0000  0.0000  0.0000  0.0000  0.0000  0.0000  0.0000  0.0000  0.0000  0.0000
  o =  0.4566  v =  0.9116 -0.4110  0.0053  0.0019  0.0038  0.0000  0.0000  0.0000  0.0000  0.0000      0.0000  0.0000  0.0000  0.0000  0.0000  0.0000  0.0000  0.0000  0.0000  0.0000
  o =  0.4664  v =  0.0000  0.0000  0.0000  0.0000  0.0000  0.0042 -0.0004 -0.8910 -0.0412 -0.4522      0.0000  0.0000  0.0000  0.0000  0.0000  0.0000  0.0000  0.0000  0.0000  0.0000
  o =  0.5330  v =  0.0033 -0.0031 -0.3948 -0.9099 -0.1273  0.0000  0.0000  0.0000  0.0000  0.0000      0.0000  0.0000  0.0000  0.0000  0.0000  0.0000  0.0000  0.0000  0.0000  0.0000
  o =  0.5516  v = -0.0069 -0.0027  0.7618 -0.4017  0.5082  0.0000  0.0000  0.0000  0.0000  0.0000      0.0000  0.0000  0.0000  0.0000  0.0000  0.0000  0.0000  0.0000  0.0000  0.0000
  o =  0.9916  v = -0.0014 -0.0014 -0.5135  0.1037  0.8518  0.0000  0.0000  0.0000  0.0000  0.0000      0.0000  0.0000  0.0000  0.0000  0.0000  0.0000  0.0000  0.0000  0.0000  0.0000
 BZINTS: Fermi energy:  3.656994; 79.000000 electrons
         Band energy:-343.964896;  BLOECHL correction:  0.000000

 eigenvalue-minimisations  : 41482
 total energy-change (2. order) :-0.4714291E-04  (-0.3254330E-04)
 number of electron      79.0000819 magnetization       4.9999987
 augmentation part       19.5134924 magnetization       3.7769986

 Free energy of the ion-electron system (eV)
  alpha Z        PSCENC =       262.10757864
  Ewald energy   TEWEN  =     -4526.91687764
  -1/2 Hartree   DENC   =     -1620.40417936
  -exchange  EXHF       =         0.00000000
  -V(xc)+E(xc)   XCENC  =       213.71669360
  PAW double counting   =      4491.69096386    -4423.95715883
  entropy T*S    EENTRO =         0.00000000
  eigenvalues    EBANDS =      -343.96489631
  atomic energy  EATOM  =      5866.65513436
  free energy    TOTEN  =       -81.07274168 eV

  energy without entropy =      -81.07274168  energy(sigma->0) =      -81.07274168

 average (electrostatic) potential at core
  the test charge radii are     1.1394  1.0774  0.7215
  (the norm of the test charge is              1.0000)
       1 -45.2960       2 -46.6256       3 -46.6255       4 -96.8183       5 -71.9705
       6 -71.8458       7 -71.7003       8 -71.7008       9 -71.7002      10 -71.7006
      11 -71.9705      12 -71.8457

 E-fermi :   3.6570     XC(G=0): -10.6539     alpha+bet :-10.8113

[...]

 k-point   1 :       0.0000    0.0000    0.0000
  band No.  band energies     occupation
      1     -15.5794      1.00000
      2     -14.6783      1.00000
      3     -14.6023      1.00000
      4     -14.5488      1.00000
      5     -14.3487      1.00000
      6     -14.2899      1.00000
      7     -14.2072      1.00000
      8     -13.9251      1.00000
      9     -10.0825      1.00000
     10     -10.0420      1.00000
     11      -9.9998      1.00000
     12      -9.7741      1.00000
     13      -9.7610      1.00000
     14      -3.4261      1.00000
     15      -2.7715      1.00000
     16      -2.3673      1.00000
     17      -2.2058      1.00000
     18      -2.1037      1.00000
     19      -2.0289      1.00000
     20      -1.8558      1.00000
     21      -1.5199      1.00000
     22      -1.4825      1.00000
     23      -1.0367      1.00000
     24      -1.0071      1.00000
     25      -0.8986      1.00000
     26      -0.7359      1.00000
     27      -0.3462      1.00000
     28      -0.0346      1.00000
     29       0.1815      1.00000
     30       0.3689      1.00000
     31       0.6973      1.00000
     32       0.7147      1.00000
     33       0.8210      1.00000
     34       0.8950      1.00000
     35       1.0474      1.00000
     36       1.1234      1.00000
     37       1.4656      1.00000
     38       1.7481      1.00000
     39       1.8094      1.00000
     40       2.4557      1.00000
     41       2.6007      1.00000
     42       3.4833      1.00000
     43       4.1152      0.00000
     44       4.7725      0.00000
     45       4.9385      0.00000
     46       5.4666      0.00000
     47       5.7247      0.00000
     48       5.8509      0.00000
     49       5.9155      0.00000
     50       6.0709      0.00000
     51       6.9123      0.00000
     52       7.1275      0.00000
     53       7.3970      0.00000
     54      10.8399      0.00000
     55      11.6934      0.00000
     56      12.7114      0.00000

[...]

 spin component 2

[...]

 k-point 196 :       0.1000   -0.1000    0.4286
  band No.  band energies     occupation
      1     -15.3848      1.00000
      2     -15.1581      1.00000
      3     -14.5826      1.00000
      4     -14.5482      1.00000
      5     -14.3979      1.00000
      6     -14.3157      1.00000
      7     -14.2624      1.00000
      8     -14.1843      1.00000
      9     -10.0635      1.00000
     10     -10.0279      1.00000
     11      -9.9874      1.00000
     12      -9.7786      1.00000
     13      -9.7289      1.00000
     14      -2.7155      1.00000
     15      -2.3167      1.00000
     16      -1.8221      1.00000
     17      -1.6780      1.00000
     18      -1.5332      1.00000
     19      -1.3208      1.00000
     20      -1.2988      1.00000
     21      -1.2212      1.00000
     22      -1.1303      1.00000
     23      -0.9884      1.00000
     24      -0.6934      1.00000
     25      -0.4977      1.00000
     26      -0.3735      1.00000
     27      -0.2967      1.00000
     28       0.0644      1.00000
     29       0.2738      1.00000
     30       0.6024      1.00000
     31       0.6767      1.00000
     32       1.0390      1.00000
     33       1.1281      1.00000
     34       1.3349      1.00000
     35       1.3510      1.00000
     36       1.7358      1.00000
     37       1.9123      1.00000
     38       5.5225      0.00000
     39       5.7335      0.00000
     40       5.7371      0.00000
     41       5.9563      0.00000
     42       6.2728      0.00000
     43       6.3541      0.00000
     44       6.3585      0.00000
     45       6.4177      0.00000
     46       6.6014      0.00000
     47       6.7345      0.00000
     48       7.6213      0.00000
     49       7.8594      0.00000
     50       8.0590      0.00000
     51       8.2860      0.00000
     52       8.5287      0.00000
     53       8.8921      0.00000
     54      10.9435      0.00000
     55      11.7673      0.00000
     56      12.6206      0.00000

 soft charge-density along one line, spin component           1
         0         1         2         3         4         5         6         7         8         9
 total charge-density along one line

 soft charge-density along one line, spin component           2
         0         1         2         3         4         5         6         7         8         9
 total charge-density along one line

------------------------ aborting loop because EDIFF is reached ----------------------------------------

 total charge

# of ion     s       p       d       tot
  1        0.410   0.707   4.201   5.318
  2        0.642   1.037   4.677   6.357
  3        0.642   1.037   4.677   6.357
  4        0.624   0.633  10.076  11.333
  5        1.591   3.399   0.000   4.990
  6        1.588   3.392   0.000   4.980
  7        1.570   3.471   0.000   5.041
  8        1.570   3.474   0.000   5.044
  9        1.570   3.471   0.000   5.041
 10        1.570   3.474   0.000   5.044
 11        1.591   3.399   0.000   4.990
 12        1.588   3.392   0.000   4.980
tot       14.956  30.886  23.632  69.474

 magnetization (x)

[...]

  FORCE on cell =-STRESS in cart. coord.  units (eV):
  Direction    XX          YY          ZZ          XY          YZ          ZX
  Alpha Z   262.10758   262.10758   262.10758
  Ewald   -1673.57538 -1615.67641 -1237.67306     0.00000     0.00000    25.90870
  Hartree   460.46614   496.76093   663.11256     0.00000     0.00000    20.09573
  E(xc)    -387.46110  -386.66470  -387.48201     0.00000     0.00000     0.08446
  Local    -100.37724  -173.21667  -703.14369     0.00000     0.00000   -47.48185
  n-local  -175.33381  -168.57323  -163.52170    -0.16042     0.10808    -0.34332
  augment   303.23330   294.89437   293.58772     0.01296     0.01998     0.44568
  Kinetic  1318.48002  1299.66591  1281.50316     0.12143    -0.10925     1.45408
  Fock        0.00000     0.00000     0.00000     0.00000     0.00000     0.00000
  Total       7.53949     9.29779     8.49055     0.00868    -0.00627     0.16348
  in kB      86.71409   106.93685    97.65248     0.09981    -0.07215     1.88023

 VOLUME and BASIS-vectors are now :
  energy-cutoff  :      520.00
  volume of cell :      139.30
      direct lattice vectors                 reciprocal lattice vectors
     3.914854000  2.804959000  0.025628000     0.127723317  0.178255725 -0.000707805
    -3.914854000  2.804959000 -0.025628000    -0.127723317  0.178255725  0.000707805
     0.035152000  0.000000000  6.343174000    -0.001032068  0.000000000  0.157655502

  length of vectors
     4.816070351  4.816070351  6.343271400     0.219291701  0.219291701  0.157658880

 FORCES acting on ions
    electron-ion (+dipol)            ewald-force                    non-local-force                 convergence-correction
   0.707E-03 0.326E-02 -.698E-03   0.147E-02 0.110E-02 -.165E-02   -.995E-04 -.245E-03 0.148E-03   0.389E-04 -.623E-04 0.506E-04
   0.267E+02 0.295E-02 0.205E+02   -.277E+02 0.293E-02 -.205E+02   0.102E+01 -.430E-01 -.634E-01   -.617E-02 -.965E-04 0.244E-01
   -.267E+02 0.296E-02 -.205E+02   0.277E+02 0.293E-02 0.205E+02   -.102E+01 0.424E-01 0.634E-01   0.625E-02 -.335E-04 -.244E-01
   0.217E-02 0.613E-04 0.178E-02   -.811E-03 -.224E-03 -.790E-03   -.172E-03 0.123E-03 -.157E-03   0.848E-04 0.310E-05 -.891E-04
   -.288E+02 0.141E-01 -.101E+03   0.298E+02 0.276E-03 0.123E+03   -.942E+00 -.111E-02 -.218E+02   0.611E-02 -.377E-04 -.552E-02
   0.642E+02 0.141E-01 -.101E+03   -.662E+02 0.156E-03 0.123E+03   0.190E+01 0.636E-01 -.222E+02   0.269E-02 -.144E-03 0.313E-02
   -.428E+02 -.687E+02 -.470E+02   0.559E+02 0.668E+02 0.473E+02   -.131E+02 0.189E+01 -.267E+00   0.949E-03 -.106E-02 -.256E-01
   0.428E+02 -.687E+02 0.470E+02   -.559E+02 0.668E+02 -.473E+02   0.131E+02 0.187E+01 0.270E+00   -.767E-03 -.115E-02 0.256E-01
   0.428E+02 0.687E+02 0.470E+02   -.559E+02 -.668E+02 -.473E+02   0.131E+02 -.189E+01 0.266E+00   -.881E-03 0.123E-02 0.255E-01
   -.428E+02 0.687E+02 -.470E+02   0.559E+02 -.668E+02 0.473E+02   -.131E+02 -.187E+01 -.270E+00   0.966E-03 0.113E-02 -.256E-01
   0.288E+02 0.141E-01 0.101E+03   -.298E+02 0.276E-03 -.123E+03   0.943E+00 -.481E-03 0.218E+02   -.623E-02 -.845E-04 0.554E-02
   -.642E+02 0.141E-01 0.101E+03   0.662E+02 0.156E-03 -.123E+03   -.190E+01 -.652E-01 0.222E+02   -.279E-02 -.157E-04 -.310E-02
   -.279E-01 0.611E-01 -.701E-02   0.000E+00 -.207E-13 0.284E-13   0.163E-02 -.274E-02 0.245E-03   0.244E-03 -.316E-03 -.130E-05

 POSITION                                       TOTAL-FORCE (eV/Angst)
      0.01757      5.60991      3.17159         0.001429     -0.000263     -0.000529
      1.05520      2.80495      4.68158         0.001738      0.014464     -0.028343
     -1.02004      2.80495      1.66160        -0.001494     -0.014037      0.028433
      0.00000      0.00000      0.00000         0.001146     -0.001625      0.000436
     -1.94459      2.80495      3.05933         0.036509      0.003000     -0.036249
      1.80640      2.80495      6.18378        -0.050651     -0.018597      0.051953
     -0.04723      1.32819      1.69846         0.018630     -0.013554     -0.003880
      0.08239      1.32819      4.64471        -0.004490     -0.006674      0.004300
      0.08239      4.28173      4.64471        -0.018660      0.008101      0.005937
     -0.04723      4.28173      1.69846         0.002921      0.002096     -0.003149
      1.97975      2.80495      3.28385        -0.038797      0.002803      0.034290
     -1.77125      2.80495      0.15940         0.051720      0.024285     -0.053198
    total drift:                               -0.026042      0.058077     -0.006762

  FREE ENERGIE OF THE ION-ELECTRON SYSTEM (eV)
  free  energy   TOTEN  =       -81.07274168 eV

  energy  without entropy=      -81.07274168  energy(sigma->0) =      -81.07274168

 total charge

[...]

 magnetization (x)

# of ion     s       p       d       tot
  1        0.024   0.036   2.931   2.991
  2        0.013   0.003   1.259   1.275
  3        0.013   0.003   1.259   1.275
  4        0.023   0.008  -0.001   0.029
  5       -0.002  -0.150   0.000  -0.152
  6       -0.001  -0.080   0.000  -0.081
  7       -0.001  -0.033   0.000  -0.035
  8       -0.001  -0.033   0.000  -0.034
  9       -0.001  -0.033   0.000  -0.035
 10       -0.001  -0.033   0.000  -0.034
 11       -0.002  -0.150   0.000  -0.152
 12       -0.001  -0.080   0.000  -0.081
tot        0.060  -0.542   5.448   4.966

 BZINTS: Fermi energy:  3.656994; 79.000000 electrons
         Band energy:-343.964896;  BLOECHL correction:  0.000000