 vasp.5.3.2 13Sep12 (build Mar 19 2013 12:21:59) complex

 executed on             LinuxIFC date 2013.05.09  09:06:32

 INCAR:
 POTCAR:  PAW_PBE Cr 06Sep2000
 POTCAR:  PAW_PBE In_d 06Sep2000
 POTCAR:  PAW_PBE O 08Apr2002
 POTCAR:  PAW_PBE Cr 06Sep2000
   VRHFIN =Cr : d5 s1

   TITEL  = PAW_PBE Cr 06Sep2000
   POMASS =   51.996; ZVAL   =    6.000    mass and valenz
   ENMAX  =  227.082; ENMIN  =  170.311 eV
   QCUT   =   -4.085; QGAM   =    8.171    optimization parameters

   Description
     l     E      TYP  RCUT    TYP  RCUT
     2   .000     23  2.500
     2   .000     23  2.500
     0   .000     23  2.500
     0   .000     23  2.500
     1  -.400     23  2.500
     1  2.000     23  2.500
     3   .000      7   .000

 POTCAR:  PAW_PBE In_d 06Sep2000
   VRHFIN =In: s2p1

   TITEL  = PAW_PBE In_d 06Sep2000
   POMASS =  114.820; ZVAL   =   13.000    mass and valenz
   ENMAX  =  239.218; ENMIN  =  179.413 eV
   QCUT   =   -4.193; QGAM   =    8.386    optimization parameters

[...]

 POTCAR:  PAW_PBE O 08Apr2002
   VRHFIN =O: s2p4

   TITEL  = PAW_PBE O 08Apr2002
   POMASS =   16.000; ZVAL   =    6.000    mass and valenz
   ENMAX  =  400.000; ENMIN  =  300.000 eV
   QCUT   =   -5.520; QGAM   =   11.041    optimization parameters

   Description
     l     E      TYP  RCUT    TYP  RCUT
     0   .000     23  1.200
     0  -.700     23  1.200
     1   .000     23  1.520
     1   .600     23  1.520
     2   .000      7  1.500

PAW_PBE Cr 06Sep2000                    :
PAW_PBE In_d 06Sep2000                  :
PAW_PBE O 08Apr2002                     :

 POSCAR: Cr O In
  positions in direct lattice
 exchange correlation table for  LEXCH =        8
   RHO(1)=    0.500       N(1)  =     2000
   RHO(2)=  100.500       N(2)  =     4000

 ion  position               nearest neighbor table
   1  0.000  0.000  0.500-   5 1.91  11 1.91   8 2.01   9 2.01  10 2.01   7 2.01   4 3.27   4 3.27

   2  0.642  0.358  0.736-   6 1.68  11 1.68   9 1.77   8 1.77   4 3.49   4 3.52   4 3.52
   3  0.358  0.642  0.264-  12 1.68   5 1.68  10 1.77   7 1.77   4 3.49   4 3.52   4 3.52
   4  0.000  0.000  0.000-   6 2.20  12 2.20   8 2.25   9 2.25  10 2.25   7 2.25   1 3.27   1 3.27
                             3 3.49   2 3.49   2 3.52   3 3.52   2 3.52   3 3.52
   5  0.223  0.777  0.452-   3 1.68   1 1.91
   6  0.743  0.257  0.957-   2 1.68   4 2.20
   7  0.211  0.267  0.274-   3 1.77   1 2.01   4 2.25
   8  0.267  0.211  0.726-   2 1.77   1 2.01   4 2.25
   9  0.789  0.733  0.726-   2 1.77   1 2.01   4 2.25
  10  0.733  0.789  0.274-   3 1.77   1 2.01   4 2.25
  11  0.777  0.223  0.548-   2 1.68   1 1.91
  12  0.257  0.743  0.043-   3 1.68   4 2.20

  LATTYP: Found a base centered monoclinic cell.
 ALAT       =     8.4711000000
 B/A-ratio  =     0.6658403277
 C/A-ratio  =     2.1440128461
 COS(beta)  =    -0.7766666567

  Lattice vectors:

 A1 = (  -4.2355500000,  -2.8202000000,   0.0000000000)
 A2 = (  -4.2355500000,   2.8202000000,   0.0000000000)
 A3 = (  16.9467600000,   0.0000000000,  -6.5322980000)

Analysis of symmetry for initial positions (statically):
 Subroutine PRICEL returns:
 Original cell was already a primitive cell.

 Routine SETGRP: Setting up the symmetry group for a
 base centered monoclinic supercell.

 Subroutine GETGRP returns: Found  4 space group operations
 (whereof  4 operations were pure point group operations)
 out of a pool of  4 trial point group operations.

The static configuration has the point symmetry C_2h.

Analysis of symmetry for dynamics (positions and initial velocities):
 Subroutine PRICEL returns:
 Original cell was already a primitive cell.

 Routine SETGRP: Setting up the symmetry group for a
 base centered monoclinic supercell.

 Subroutine GETGRP returns: Found  4 space group operations
 (whereof  4 operations were pure point group operations)
 out of a pool of  4 trial point group operations.

The dynamic configuration has the point symmetry C_2h.

Analysis of magnetic symmetry:

 Subroutine MAGSYM returns: Found  4 space group operations
 (whereof  4 operations were pure point group operations)
 out of a pool of  4 trial space group operations
 (whereof  4 operations were pure point group operations)
 and found also     1 'primitive' translations

The magnetic configuration has the point symmetry C_2h.

 KPOINTS: KPOINTS

Automatic generation of k-mesh.
Space group operators:
 irot       det(A)        alpha          n_x          n_y          n_z        tau_x        tau_y        tau_z
    1     1.000000     0.000000     1.000000     0.000000     0.000000     0.000000     0.000000     0.000000
    2    -1.000000     0.000000     1.000000     0.000000     0.000000     0.000000     0.000000     0.000000
    3     1.000000   180.000000     0.000000     1.000000     0.000000     0.000000     0.000000     0.000000
    4    -1.000000   180.000000     0.000000     1.000000     0.000000     0.000000     0.000000     0.000000

 Subroutine IBZKPT returns following result:

 Found     72 irreducible k-points:

 Following reciprocal coordinates:
            Coordinates               Weight
  0.000000  0.000000  0.000000      1.000000
  0.142857  0.000000  0.000000      4.000000
  0.285714  0.000000  0.000000      4.000000
  0.428571  0.000000  0.000000      4.000000
  0.142857  0.142857  0.000000      2.000000
  0.285714  0.142857  0.000000      4.000000
  0.428571  0.142857  0.000000      4.000000
 -0.428571  0.142857  0.000000      4.000000
 -0.285714  0.142857  0.000000      4.000000
 -0.142857  0.142857  0.000000      2.000000
  0.285714  0.285714  0.000000      2.000000
  0.428571  0.285714  0.000000      4.000000
 -0.428571  0.285714  0.000000      4.000000
 -0.285714  0.285714  0.000000      2.000000
  0.428571  0.428571  0.000000      2.000000
 -0.428571  0.428571  0.000000      2.000000
  0.000000  0.000000  0.200000      2.000000
  0.142857  0.000000  0.200000      4.000000
  0.285714  0.000000  0.200000      4.000000
  0.428571  0.000000  0.200000      4.000000
 -0.428571  0.000000  0.200000      4.000000
 -0.285714  0.000000  0.200000      4.000000
 -0.142857  0.000000  0.200000      4.000000
  0.142857  0.142857  0.200000      4.000000
  0.285714  0.142857  0.200000      4.000000
  0.428571  0.142857  0.200000      4.000000
 -0.428571  0.142857  0.200000      4.000000
 -0.285714  0.142857  0.200000      4.000000
 -0.142857  0.142857  0.200000      2.000000
  0.142857  0.285714  0.200000      4.000000
  0.285714  0.285714  0.200000      4.000000
  0.428571  0.285714  0.200000      4.000000
 -0.428571  0.285714  0.200000      4.000000
 -0.285714  0.285714  0.200000      2.000000
  0.142857  0.428571  0.200000      4.000000
  0.285714  0.428571  0.200000      4.000000
  0.428571  0.428571  0.200000      4.000000
 -0.428571  0.428571  0.200000      2.000000
  0.142857 -0.428571  0.200000      4.000000
  0.285714 -0.428571  0.200000      4.000000
  0.428571 -0.428571  0.200000      2.000000
  0.142857 -0.285714  0.200000      4.000000
  0.285714 -0.285714  0.200000      2.000000
  0.142857 -0.142857  0.200000      2.000000
  0.000000  0.000000  0.400000      2.000000
  0.142857  0.000000  0.400000      4.000000
  0.285714  0.000000  0.400000      4.000000
  0.428571  0.000000  0.400000      4.000000
 -0.428571  0.000000  0.400000      4.000000
 -0.285714  0.000000  0.400000      4.000000
 -0.142857  0.000000  0.400000      4.000000
  0.142857  0.142857  0.400000      4.000000
  0.285714  0.142857  0.400000      4.000000
  0.428571  0.142857  0.400000      4.000000
 -0.428571  0.142857  0.400000      4.000000
 -0.285714  0.142857  0.400000      4.000000
 -0.142857  0.142857  0.400000      2.000000
  0.142857  0.285714  0.400000      4.000000
  0.285714  0.285714  0.400000      4.000000
  0.428571  0.285714  0.400000      4.000000
 -0.428571  0.285714  0.400000      4.000000
 -0.285714  0.285714  0.400000      2.000000
  0.142857  0.428571  0.400000      4.000000
  0.285714  0.428571  0.400000      4.000000
  0.428571  0.428571  0.400000      4.000000
 -0.428571  0.428571  0.400000      2.000000
  0.142857 -0.428571  0.400000      4.000000
  0.285714 -0.428571  0.400000      4.000000
  0.428571 -0.428571  0.400000      2.000000
  0.142857 -0.285714  0.400000      4.000000
  0.285714 -0.285714  0.400000      2.000000
  0.142857 -0.142857  0.400000      2.000000

 Following cartesian coordinates:
            Coordinates               Weight
  0.000000  0.000000  0.000000      1.000000
  0.016864  0.025327  0.000012      4.000000
  0.033728  0.050655  0.000024      4.000000
  0.050592  0.075982  0.000035      4.000000
  0.000000  0.050655  0.000000      2.000000
  0.016864  0.075982  0.000012      4.000000
  0.033728  0.101310  0.000024      4.000000
 -0.067456 -0.050655 -0.000047      4.000000
 -0.050592 -0.025327 -0.000035      4.000000
 -0.033728  0.000000 -0.000024      2.000000
  0.000000  0.101310  0.000000      2.000000
  0.016864  0.126637  0.000012      4.000000
 -0.084320 -0.025327 -0.000059      4.000000
 -0.067456  0.000000 -0.000047      2.000000
  0.000000  0.151965  0.000000      2.000000
 -0.101184  0.000000 -0.000071      2.000000
  0.000000  0.000000  0.030617      2.000000
  0.016864  0.025327  0.030629      4.000000
  0.033728  0.050655  0.030641      4.000000
  0.050592  0.075982  0.030652      4.000000
 -0.050592 -0.075982  0.030582      4.000000
 -0.033728 -0.050655  0.030594      4.000000
 -0.016864 -0.025327  0.030605      4.000000
  0.000000  0.050655  0.030617      4.000000
  0.016864  0.075982  0.030629      4.000000
  0.033728  0.101310  0.030641      4.000000
 -0.067456 -0.050655  0.030570      4.000000
 -0.050592 -0.025327  0.030582      4.000000
 -0.033728  0.000000  0.030594      2.000000
 -0.016864  0.075982  0.030605      4.000000
  0.000000  0.101310  0.030617      4.000000
  0.016864  0.126637  0.030629      4.000000
 -0.084320 -0.025327  0.030558      4.000000
 -0.067456  0.000000  0.030570      2.000000
 -0.033728  0.101310  0.030594      4.000000
 -0.016864  0.126637  0.030605      4.000000
  0.000000  0.151965  0.030617      4.000000
 -0.101184  0.000000  0.030546      2.000000
  0.067456 -0.050655  0.030664      4.000000
  0.084320 -0.025327  0.030676      4.000000
  0.101184  0.000000  0.030688      2.000000
  0.050592 -0.025327  0.030652      4.000000
  0.067456  0.000000  0.030664      2.000000
  0.033728  0.000000  0.030641      2.000000
  0.000000  0.000000  0.061234      2.000000
  0.016864  0.025327  0.061246      4.000000
  0.033728  0.050655  0.061258      4.000000
  0.050592  0.075982  0.061270      4.000000
 -0.050592 -0.075982  0.061199      4.000000
 -0.033728 -0.050655  0.061211      4.000000
 -0.016864 -0.025327  0.061222      4.000000
  0.000000  0.050655  0.061234      4.000000
  0.016864  0.075982  0.061246      4.000000
  0.033728  0.101310  0.061258      4.000000
 -0.067456 -0.050655  0.061187      4.000000
 -0.050592 -0.025327  0.061199      4.000000
 -0.033728  0.000000  0.061211      2.000000
 -0.016864  0.075982  0.061222      4.000000
  0.000000  0.101310  0.061234      4.000000
  0.016864  0.126637  0.061246      4.000000
 -0.084320 -0.025327  0.061175      4.000000
 -0.067456  0.000000  0.061187      2.000000
[...]

[...]

 Broyden mixing:
  rms(total) = 0.36957E+01    rms(broyden)= 0.36945E+01
  rms(prec ) = 0.59006E+01
  weight for this iteration     100.00

[...]

 eigenvalues of (default mixing * dielectric matrix)
  average eigenvalue GAMMA=   0.5584
  0.5584

[...]

 eigenvalue-minimisations  :  8437
 total energy-change (2. order) :-0.4524819E-03  (-0.3038571E-05)
 number of electron      78.9999792 magnetization       5.0000545
 augmentation part       19.2471332 magnetization       3.8353182

[...]

 Broyden mixing:
  rms(total) = 0.47738E-01    rms(broyden)= 0.47737E-01
  rms(prec ) = 0.58681E-01
  weight for this iteration     100.00

 eigenvalues of (default mixing * dielectric matrix)
  average eigenvalue GAMMA=   1.0713
  3.3602  2.4040  2.4040  1.2726  1.2726  1.5075  1.4250  1.4250  0.9695  0.9695
  0.3002  0.6609  0.6609  0.7726  0.7726  0.5433  0.5433  0.6128  0.6128  0.5037
  0.5037  0.0727

[...]

----------------------------------------- Iteration    1(  28)  ---------------------------------------

atom =   1  type =  1  l = 2

[...]

  o =  0.1980  v =  0.0000  0.0000  0.0000  0.0000  0.0000 -0.1062  0.9943  0.0000  0.0000  0.0000      0.0000  0.0000  0.0000  0.0000  0.0000  0.0000  0.0000  0.0000  0.0000  0.0000
  o =  0.2248  v =  0.0000  0.0000  0.0000  0.0000  0.0000  0.0000  0.0000 -0.5772  0.1947  0.7931      0.0000  0.0000  0.0000  0.0000  0.0000  0.0000  0.0000  0.0000  0.0000  0.0000
  o =  0.3715  v =  0.0000  0.0000  0.0000  0.0000  0.0000 -0.9943 -0.1062  0.0000  0.0000  0.0000      0.0000  0.0000  0.0000  0.0000  0.0000  0.0000  0.0000  0.0000  0.0000  0.0000
  o =  0.3972  v =  0.0000  0.0000  0.0000  0.0000  0.0000  0.0000  0.0000 -0.7706  0.1914 -0.6079      0.0000  0.0000  0.0000  0.0000  0.0000  0.0000  0.0000  0.0000  0.0000  0.0000
  o =  0.4702  v =  0.0000  0.0000 -0.7941  0.0898 -0.6011  0.0000  0.0000  0.0000  0.0000  0.0000      0.0000  0.0000  0.0000  0.0000  0.0000  0.0000  0.0000  0.0000  0.0000  0.0000
  o =  0.4707  v =  0.0000  0.0000  0.0000  0.0000  0.0000  0.0000  0.0000  0.2701  0.9620 -0.0395      0.0000  0.0000  0.0000  0.0000  0.0000  0.0000  0.0000  0.0000  0.0000  0.0000
  o =  0.4826  v = -0.9939 -0.1106  0.0000  0.0000  0.0000  0.0000  0.0000  0.0000  0.0000  0.0000      0.0000  0.0000  0.0000  0.0000  0.0000  0.0000  0.0000  0.0000  0.0000  0.0000
  o =  0.5620  v =  0.0000  0.0000  0.4569 -0.5641 -0.6878  0.0000  0.0000  0.0000  0.0000  0.0000      0.0000  0.0000  0.0000  0.0000  0.0000  0.0000  0.0000  0.0000  0.0000  0.0000
  o =  0.5855  v =  0.0000  0.0000  0.4009  0.8208 -0.4069  0.0000  0.0000  0.0000  0.0000  0.0000      0.0000  0.0000  0.0000  0.0000  0.0000  0.0000  0.0000  0.0000  0.0000  0.0000
  o =  0.9019  v =  0.1106 -0.9939  0.0000  0.0000  0.0000  0.0000  0.0000  0.0000  0.0000  0.0000      0.0000  0.0000  0.0000  0.0000  0.0000  0.0000  0.0000  0.0000  0.0000  0.0000
atom =   3  type =  1  l = 2

 onsite density matrix

[...]

  0.3695  0.0183  0.0000  0.0000  0.0000
  0.0183  0.1999  0.0000  0.0000  0.0000
  0.0000  0.0000  0.3451  0.0385  0.0781
  0.0000  0.0000  0.0385  0.4586 -0.0294
  0.0000  0.0000  0.0781 -0.0294  0.2889

 occupancies and eigenvectors

  o =  0.1980  v =  0.0000  0.0000  0.0000  0.0000  0.0000 -0.1062  0.9943  0.0000  0.0000  0.0000      0.0000  0.0000  0.0000  0.0000  0.0000  0.0000  0.0000  0.0000  0.0000  0.0000
  o =  0.2248  v =  0.0000  0.0000  0.0000  0.0000  0.0000  0.0000  0.0000 -0.5772  0.1947  0.7931      0.0000  0.0000  0.0000  0.0000  0.0000  0.0000  0.0000  0.0000  0.0000  0.0000
  o =  0.3715  v =  0.0000  0.0000  0.0000  0.0000  0.0000 -0.9943 -0.1062  0.0000  0.0000  0.0000      0.0000  0.0000  0.0000  0.0000  0.0000  0.0000  0.0000  0.0000  0.0000  0.0000
  o =  0.3972  v =  0.0000  0.0000  0.0000  0.0000  0.0000  0.0000  0.0000 -0.7706  0.1914 -0.6079      0.0000  0.0000  0.0000  0.0000  0.0000  0.0000  0.0000  0.0000  0.0000  0.0000
  o =  0.4702  v =  0.0000  0.0000 -0.7941  0.0898 -0.6011  0.0000  0.0000  0.0000  0.0000  0.0000      0.0000  0.0000  0.0000  0.0000  0.0000  0.0000  0.0000  0.0000  0.0000  0.0000
  o =  0.4707  v =  0.0000  0.0000  0.0000  0.0000  0.0000  0.0000  0.0000  0.2701  0.9620 -0.0395      0.0000  0.0000  0.0000  0.0000  0.0000  0.0000  0.0000  0.0000  0.0000  0.0000
  o =  0.4826  v = -0.9939 -0.1106  0.0000  0.0000  0.0000  0.0000  0.0000  0.0000  0.0000  0.0000      0.0000  0.0000  0.0000  0.0000  0.0000  0.0000  0.0000  0.0000  0.0000  0.0000
  o =  0.5620  v =  0.0000  0.0000  0.4569 -0.5641 -0.6878  0.0000  0.0000  0.0000  0.0000  0.0000      0.0000  0.0000  0.0000  0.0000  0.0000  0.0000  0.0000  0.0000  0.0000  0.0000
  o =  0.5855  v =  0.0000  0.0000  0.4009  0.8208 -0.4069  0.0000  0.0000  0.0000  0.0000  0.0000      0.0000  0.0000  0.0000  0.0000  0.0000  0.0000  0.0000  0.0000  0.0000  0.0000
  o =  0.9019  v =  0.1106 -0.9939  0.0000  0.0000  0.0000  0.0000  0.0000  0.0000  0.0000  0.0000      0.0000  0.0000  0.0000  0.0000  0.0000  0.0000  0.0000  0.0000  0.0000  0.0000

 eigenvalue-minimisations  :  6061
 total energy-change (2. order) : 0.5619338E-04  (-0.8990273E-06)
 number of electron      78.9999792 magnetization       5.0000841
 augmentation part       19.2466227 magnetization       3.8351400

 Free energy of the ion-electron system (eV)
  alpha Z        PSCENC =       233.96819540
  Ewald energy   TEWEN  =     -4215.50445984
  -1/2 Hartree   DENC   =     -1815.50321331
  -exchange  EXHF       =         0.00000000
  -V(xc)+E(xc)   XCENC  =       211.70153776
  PAW double counting   =      4567.42708898    -4496.36822831
  entropy T*S    EENTRO =        -0.07814377
  eigenvalues    EBANDS =      -425.22059488
  atomic energy  EATOM  =      5857.18730348
  free energy    TOTEN  =       -82.39051448 eV

  energy without entropy =      -82.31237071  energy(sigma->0) =      -82.35144259

 average (electrostatic) potential at core
  the test charge radii are     1.1394  1.0774  0.7215
  (the norm of the test charge is              1.0000)
       1 -46.3965       2 -47.5247       3 -47.5247       4 -98.2037       5 -73.4961
       6 -73.4335       7 -73.5143       8 -73.5143       9 -73.5143      10 -73.5143
      11 -73.4961      12 -73.4335

 E-fermi :   2.8679     XC(G=0):  -9.9437     alpha+bet : -9.6506

[...]

 k-point   1 :       0.0000    0.0000    0.0000
  band No.  band energies     occupation
      1     -16.4125      1.00000
      2     -15.7501      1.00000
      3     -15.5672      1.00000
      4     -15.5456      1.00000
      5     -15.3802      1.00000
      6     -15.3655      1.00000
      7     -15.1782      1.00000
      8     -15.0268      1.00000
      9     -11.3844      1.00000
     10     -11.3478      1.00000
     11     -11.2923      1.00000
     12     -11.1732      1.00000
     13     -11.0987      1.00000
     14      -4.2935      1.00000
     15      -3.4912      1.00000
     16      -3.2229      1.00000
     17      -3.0794      1.00000
     18      -3.0537      1.00000
     19      -2.8212      1.00000
     20      -2.7843      1.00000
     21      -2.6766      1.00000
     22      -2.5224      1.00000
     23      -2.4684      1.00000
     24      -2.2498      1.00000
     25      -1.9420      1.00000
     26      -1.6637      1.00000
     27      -1.4085      1.00000
     28      -0.9301      1.00000
     29      -0.7535      1.00000
     30      -0.6764      1.00000
     31      -0.4147      1.00000
     32      -0.3943      1.00000
     33      -0.1037      1.00000
     34      -0.1005      1.00000
     35      -0.0575      1.00000
     36       0.3300      1.00000
     37       0.5409      1.00000
     38       0.8116      1.00000
     39       0.9225      1.00000
     40       1.2478      1.00000
     41       2.4302      0.99902
     42       2.7418      0.81357
     43       3.0581      0.08927
     44       3.1203      0.03710
     45       4.1612      0.00000
     46       4.2599      0.00000
     47       4.4067      0.00000
     48       4.9536      0.00000
     49       5.0919      0.00000
     50       5.1487      0.00000
     51       5.4042      0.00000
     52       5.9355      0.00000
     53       6.4661      0.00000
     54       9.0584      0.00000
     55       9.7552      0.00000
     56      11.0190      0.00000

[...]

 spin component 2

[...]

 k-point  72 :       0.1429   -0.1429    0.4000
  band No.  band energies     occupation
      1     -16.3421      1.00000
      2     -16.0926      1.00000
      3     -15.6287      1.00000
      4     -15.5936      1.00000
      5     -15.4783      1.00000
      6     -15.4740      1.00000
      7     -15.3206      1.00000
      8     -15.2152      1.00000
      9     -11.3610      1.00000
     10     -11.3245      1.00000
     11     -11.2748      1.00000
     12     -11.1683      1.00000
     13     -11.0859      1.00000
     14      -3.7863      1.00000
     15      -3.2990      1.00000
     16      -2.9221      1.00000
     17      -2.5403      1.00000
     18      -2.4012      1.00000
     19      -2.3339      1.00000
     20      -2.2588      1.00000
     21      -2.0318      1.00000
     22      -2.0246      1.00000
     23      -1.9457      1.00000
     24      -1.6289      1.00000
     25      -1.4254      1.00000
     26      -1.3679      1.00000
     27      -1.0915      1.00000
     28      -1.0864      1.00000
     29      -0.6320      1.00000
     30      -0.5505      1.00000
     31      -0.4512      1.00000
     32      -0.0166      1.00000
     33       0.1134      1.00000
     34       0.1557      1.00000
     35       0.4474      1.00000
     36       0.7460      1.00000
     37       0.9227      1.00000
     38       4.4520      0.00000
     39       4.7408      0.00000
     40       4.9474      0.00000
     41       5.1202      0.00000
     42       5.3390      0.00000
     43       5.4988      0.00000
     44       5.5198      0.00000
     45       5.6864      0.00000
     46       5.7489      0.00000
     47       5.7864      0.00000
     48       6.3597      0.00000
     49       6.7243      0.00000
     50       6.9103      0.00000
     51       7.1588      0.00000
     52       7.4776      0.00000
     53       7.9224      0.00000
     54       9.0951      0.00000
     55       9.8565      0.00000
     56      10.5480      0.00000

 soft charge-density along one line, spin component           1
         0         1         2         3         4         5         6         7         8         9
 total charge-density along one line

 soft charge-density along one line, spin component           2
         0         1         2         3         4         5         6         7         8         9
 total charge-density along one line

------------------------ aborting loop because EDIFF is reached ----------------------------------------

 total charge

# of ion     s       p       d       tot
  1        0.400   0.694   4.177   5.272
  2        0.638   1.041   4.650   6.330
  3        0.638   1.041   4.650   6.330
  4        0.613   0.521  10.007  11.141
  5        1.687   3.503   0.000   5.190
  6        1.688   3.463   0.000   5.152
  7        1.672   3.516   0.000   5.188
  8        1.672   3.522   0.000   5.194
  9        1.672   3.516   0.000   5.188
 10        1.672   3.522   0.000   5.194
 11        1.687   3.503   0.000   5.190
 12        1.688   3.463   0.000   5.152
tot       15.729  31.307  23.484  70.520

 magnetization (x)

[...]

  FORCE on cell =-STRESS in cart. coord.  units (eV):
  Direction    XX          YY          ZZ          XY          YZ          ZX
  Alpha Z   233.96820   233.96820   233.96820
  Ewald   -1451.06810 -1603.70049 -1160.74279     0.00000     0.00000    12.35340
  Hartree   566.42514   499.74488   749.90440     0.00000     0.00000    15.37310
  E(xc)    -385.26496  -385.25079  -385.67398     0.00000     0.00000     0.12578
  Local    -404.53710  -202.26055  -872.91194     0.00000     0.00000   -28.42939
  n-local  -184.20144  -192.39210  -185.96235    -0.16542     0.23021    -0.40795
  augment   293.17161   298.16728   296.20310     0.00000     0.00000    -0.39454
  Kinetic  1297.73442  1315.32673  1290.22515    -0.14099    -0.66679     1.31223
  Fock        0.00000     0.00000     0.00000     0.00000     0.00000     0.00000
  Total     -33.77222   -36.39683   -34.99022     0.00000     0.00000    -0.06737
  in kB    -346.72450  -373.67022  -359.22913     0.00000     0.00000    -0.69167

 VOLUME and BASIS-vectors are now :
  energy-cutoff  :      300.00
  volume of cell :      156.06
      direct lattice vectors                 reciprocal lattice vectors
     4.235550000  2.820200000  0.000000000     0.118048423  0.177292391  0.000082406
    -4.235550000  2.820200000  0.000000000    -0.118048423  0.177292391 -0.000082406
    -0.004560000  0.000000000  6.532298000     0.000000000  0.000000000  0.153085484

  length of vectors
     5.088556951  5.088556951  6.532299592     0.212997720  0.212997720  0.153085484

 FORCES acting on ions
    electron-ion (+dipol)            ewald-force                    non-local-force                 convergence-correction
   0.227E-14 0.184E-16 0.369E-13   -.977E-14 0.826E-13 0.195E-13   0.194E-22 0.000E+00 0.000E+00   -.228E-13 -.789E-14 0.210E-13
   0.525E+02 0.185E-04 0.213E+02   -.520E+02 -.386E-13 -.214E+02   -.594E+00 -.173E-17 -.136E+00   -.172E+00 0.144E-12 0.368E-01
   -.525E+02 -.185E-04 -.213E+02   0.520E+02 -.420E-13 0.214E+02   0.594E+00 0.694E-17 0.136E+00   0.172E+00 -.209E-12 -.368E-01
   0.292E-15 0.346E-15 0.434E-15   0.284E-13 0.314E-13 0.284E-13   0.482E-22 -.331E-23 0.000E+00   -.523E-13 0.133E-12 0.283E-13
   -.397E+02 0.100E-03 -.985E+02   0.377E+02 -.177E-13 0.116E+03   0.202E+01 0.000E+00 -.170E+02   0.230E+00 -.231E-12 -.170E+00
   0.659E+02 0.818E-04 -.111E+03   -.650E+02 0.116E-13 0.133E+03   -.588E-01 0.000E+00 -.209E+02   -.218E+00 -.810E-13 -.210E+00
   -.412E+02 -.694E+02 -.307E+02   0.509E+02 0.650E+02 0.309E+02   -.941E+01 0.381E+01 -.483E+00   -.290E-01 0.281E+00 -.480E-01
   0.412E+02 -.694E+02 0.307E+02   -.509E+02 0.650E+02 -.309E+02   0.941E+01 0.381E+01 0.483E+00   0.290E-01 0.281E+00 0.480E-01
   0.412E+02 0.694E+02 0.307E+02   -.509E+02 -.650E+02 -.309E+02   0.941E+01 -.381E+01 0.483E+00   0.290E-01 -.281E+00 0.480E-01
   -.412E+02 0.694E+02 -.307E+02   0.509E+02 -.650E+02 0.309E+02   -.941E+01 -.381E+01 -.483E+00   -.290E-01 -.281E+00 -.480E-01
   0.397E+02 -.100E-03 0.985E+02   -.377E+02 0.114E-13 -.116E+03   -.202E+01 0.000E+00 0.170E+02   -.230E+00 0.226E-12 0.170E+00
   -.659E+02 -.818E-04 0.111E+03   0.650E+02 -.755E-14 -.133E+03   0.588E-01 0.347E-17 0.209E+02   0.218E+00 0.245E-13 0.210E+00
   0.202E-11 0.286E-11 0.678E-11   0.142E-13 0.323E-13 0.568E-13   -.305E-14 0.448E-15 0.000E+00   0.485E-13 0.235E-13 0.998E-13

 POSITION                                       TOTAL-FORCE (eV/Angst)
     -0.00228      0.00000      3.26615         0.000000      0.000000      0.000000
      1.20293      2.82020      4.80712        -0.212032      0.000000     -0.210706
     -1.20749      2.82020      1.72518         0.212032      0.000000      0.210706
      0.00000      0.00000      0.00000         0.000000      0.000000      0.000000
     -2.34940      2.82020      2.95391         0.294211      0.000000      0.298103
      2.05242      2.82020      6.25206         0.622565      0.000000      0.556149
     -0.23759      1.34580      1.79050         0.238289     -0.304070     -0.356062
      0.23303      1.34580      4.74180        -0.238289     -0.304070      0.356062
      0.23303      4.29460      4.74180        -0.238289      0.304070      0.356062
     -0.23759      4.29460      1.79050         0.238289      0.304070     -0.356062
      2.34484      2.82020      3.57839        -0.294211      0.000000     -0.298103
     -2.05698      2.82020      0.28024        -0.622565      0.000000     -0.556149
    total drift:                                0.000000      0.000000      0.000000

  FREE ENERGIE OF THE ION-ELECTRON SYSTEM (eV)
  free  energy   TOTEN  =       -82.39051448 eV

  energy  without entropy=      -82.31237071  energy(sigma->0) =      -82.35144259

 total charge

[...]

 magnetization (x)

# of ion     s       p       d       tot
  1        0.021   0.032   2.914   2.967
  2        0.010   0.009   1.326   1.345
  3        0.010   0.009   1.326   1.345
  4        0.039   0.009  -0.003   0.045
  5       -0.004  -0.128   0.000  -0.132
  6        0.000  -0.077   0.000  -0.077
  7       -0.002  -0.085   0.000  -0.087
  8       -0.002  -0.083   0.000  -0.086
  9       -0.002  -0.085   0.000  -0.087
 10       -0.002  -0.083   0.000  -0.086
 11       -0.004  -0.128   0.000  -0.132
 12        0.000  -0.077   0.000  -0.077
tot        0.062  -0.688   5.563   4.937