 vasp.5.2.2 15Apr09 complex
 executed on             LinuxIFC date 2012.06.25  23:25:13

 INCAR:
 POTCAR:   PAW_PBE Ge_d 06Sep2000
 POTCAR:   PAW_PBE Sr_sv 07Sep2000
 POTCAR:   PAW_PBE Ge_d 06Sep2000
   VRHFIN =Ge: 3d4s4p

   TITEL  = PAW_PBE Ge_d 06Sep2000
   POMASS =   72.610; ZVAL   =   14.000    mass and valenz
   ENMAX  =  287.568; ENMIN  =  215.676 eV
   QCUT   =   -4.597; QGAM   =    9.195    optimization parameters

   Description
     l     E      TYP  RCUT    TYP  RCUT
     2   .000     23  2.300
     2  -.100     23  2.300
     0   .000     23  2.300
     0   .000     23  2.300
     1   .000     23  2.300
     1   .000     23  2.300
     3  -.100      7  2.300

 POTCAR:   PAW_PBE Sr_sv 07Sep2000
   VRHFIN =Sr: 4s4p5s

   TITEL  = PAW_PBE Sr_sv 07Sep2000
   POMASS =   87.620; ZVAL   =   10.000    mass and valenz
   ENMAX  =  229.282; ENMIN  =  171.961 eV
   QCUT   =   -4.105; QGAM   =    8.210    optimization parameters

   Description
     l     E      TYP  RCUT    TYP  RCUT
     0   .000     23  2.480
     0   .000     23  2.480
     1   .000     23  2.500
     1   .000     23  2.500
     2   .000     23  2.500
     2   .000     23  2.500

 PAW_PBE Ge_d 06Sep2000                 :
 PAW_PBE Sr_sv 07Sep2000                :

 POSCAR: Ge Sr
  positions in direct lattice
 exchange correlation table for  LEXCH =        8
   RHO(1)=    0.500       N(1)  =     2000
   RHO(2)=  100.500       N(2)  =     4000

 ion  position               nearest neighbor table
   1  0.333  0.667  0.404-   2 2.60   2 2.60   2 2.60   3 3.19   3 3.19   3 3.19   3 3.91   3 3.91
                             3 3.91
   2  0.667  0.333  0.596-   1 2.60   1 2.60   1 2.60   3 3.19   3 3.19   3 3.19   3 3.91   3 3.91
                             3 3.91
   3  0.000  0.000  0.000-   1 3.19   2 3.19   1 3.19   2 3.19   2 3.19   1 3.19   2 3.91   1 3.91
                             1 3.91   2 3.91   2 3.91   1 3.91

  LATTYP: Found a hexagonal cell.
 ALAT       =     4.1625465858
 C/A-ratio  =     1.2453779144

  Lattice vectors:

 A1 = (   4.1625466442,   0.0000000000,   0.0000000000)
 A2 = (  -2.0812733221,   3.6048710708,   0.0000000000)
 A3 = (   0.0000000000,   0.0000000000,   5.1839435857)
 Subroutine PRICEL returns:
 Original cell was already a primitive cell.

Analysis of symmetry for initial positions (statically):

 Routine SETGRP: Setting up the symmetry group for a
 hexagonal supercell.

 Subroutine GETGRP returns: Found 12 space group operations
 (whereof 12 operations were pure point group operations)
 out of a pool of 24 trial point group operations.

The static configuration has the point symmetry D_3d.

Analysis of symmetry for dynamics (positions and initial velocities):

 Subroutine DYNSYM returns: Found 12 space group operations
 (whereof 12 operations were pure point group operations)
 out of a pool of 12 trial space group operations
 (whereof 12 operations were pure point group operations)
 and found also     1 'primitive' translations

The dynamic configuration has the point symmetry D_3d.

 KPOINTS: KPOINTS created by Atomic Simulation Env

Automatic generation of k-mesh.

 Subroutine IBZKPT returns following result:

 Found    261 irreducible k-points:

 Following reciprocal coordinates:
            Coordinates               Weight
  0.000000  0.000000  0.000000      1.000000
  0.058824  0.000000  0.000000      6.000000
  0.117647  0.000000  0.000000      6.000000
  0.176471  0.000000  0.000000      6.000000
  0.235294  0.000000  0.000000      6.000000
  0.294118  0.000000  0.000000      6.000000
  0.352941  0.000000  0.000000      6.000000
  0.411765  0.000000  0.000000      6.000000
  0.470588  0.000000  0.000000      6.000000
  0.058824  0.058824  0.000000      6.000000
  0.117647  0.058824  0.000000     12.000000
  0.176471  0.058824  0.000000     12.000000
  0.235294  0.058824  0.000000     12.000000
  0.294118  0.058824  0.000000     12.000000
  0.352941  0.058824  0.000000     12.000000
  0.411765  0.058824  0.000000     12.000000
  0.470588  0.058824  0.000000      6.000000
  0.117647  0.117647  0.000000      6.000000
  0.176471  0.117647  0.000000     12.000000
  0.235294  0.117647  0.000000     12.000000
  0.294118  0.117647  0.000000     12.000000
  0.352941  0.117647  0.000000     12.000000
  0.411765  0.117647  0.000000     12.000000
  0.176471  0.176471  0.000000      6.000000
  0.235294  0.176471  0.000000     12.000000
  0.294118  0.176471  0.000000     12.000000
  0.352941  0.176471  0.000000     12.000000
  0.411765  0.176471  0.000000      6.000000
  0.235294  0.235294  0.000000      6.000000
  0.294118  0.235294  0.000000     12.000000
  0.352941  0.235294  0.000000     12.000000
  0.294118  0.294118  0.000000      6.000000
  0.352941  0.294118  0.000000      6.000000
  0.000000  0.000000  0.111111      2.000000
  0.058824  0.000000  0.111111      6.000000
  0.117647  0.000000  0.111111      6.000000
  0.176471  0.000000  0.111111      6.000000
  0.235294  0.000000  0.111111      6.000000
  0.294118  0.000000  0.111111      6.000000
  0.352941  0.000000  0.111111      6.000000
  0.411765  0.000000  0.111111      6.000000
  0.470588  0.000000  0.111111      6.000000
 -0.470588  0.000000  0.111111      6.000000
 -0.411765  0.000000  0.111111      6.000000
 -0.352941  0.000000  0.111111      6.000000
 -0.294118  0.000000  0.111111      6.000000
 -0.235294  0.000000  0.111111      6.000000
 -0.176471  0.000000  0.111111      6.000000
 -0.117647  0.000000  0.111111      6.000000
 -0.058824  0.000000  0.111111      6.000000
  0.058824  0.058824  0.111111     12.000000
  0.117647  0.058824  0.111111     12.000000
  0.176471  0.058824  0.111111     12.000000
  0.235294  0.058824  0.111111     12.000000
  0.294118  0.058824  0.111111     12.000000
  0.352941  0.058824  0.111111     12.000000
  0.411765  0.058824  0.111111     12.000000
  0.470588  0.058824  0.111111     12.000000
 -0.470588  0.058824  0.111111     12.000000
 -0.411765  0.058824  0.111111     12.000000
[...]
  0.176471  0.176471  0.444444     12.000000
  0.235294  0.176471  0.444444     12.000000
  0.294118  0.176471  0.444444     12.000000
  0.352941  0.176471  0.444444     12.000000
  0.411765  0.176471  0.444444     12.000000
  0.470588  0.176471  0.444444     12.000000
 -0.470588  0.176471  0.444444     12.000000
 -0.411765  0.176471  0.444444     12.000000
  0.235294  0.235294  0.444444     12.000000
  0.294118  0.235294  0.444444     12.000000
  0.352941  0.235294  0.444444     12.000000
  0.411765  0.235294  0.444444     12.000000
  0.470588  0.235294  0.444444     12.000000
  0.294118  0.294118  0.444444     12.000000
  0.352941  0.294118  0.444444     12.000000

 Following cartesian coordinates:
            Coordinates               Weight
  0.000000  0.000000  0.000000      1.000000
  0.014132  0.008159  0.000000      6.000000
  0.028263  0.016318  0.000000      6.000000
  0.042395  0.024477  0.000000      6.000000
  0.056526  0.032636  0.000000      6.000000
  0.070658  0.040794  0.000000      6.000000
  0.084790  0.048953  0.000000      6.000000
  0.098921  0.057112  0.000000      6.000000
  0.113053  0.065271  0.000000      6.000000
  0.014132  0.024477  0.000000      6.000000
  0.028263  0.032636  0.000000     12.000000
  0.042395  0.040794  0.000000     12.000000
  0.056526  0.048953  0.000000     12.000000
  0.070658  0.057112  0.000000     12.000000
  0.084790  0.065271  0.000000     12.000000
  0.098921  0.073430  0.000000     12.000000
  0.113053  0.081589  0.000000      6.000000
  0.028263  0.048953  0.000000      6.000000
  0.042395  0.057112  0.000000     12.000000
  0.056526  0.065271  0.000000     12.000000
  0.070658  0.073430  0.000000     12.000000
  0.084790  0.081589  0.000000     12.000000
  0.098921  0.089748  0.000000     12.000000
  0.042395  0.073430  0.000000      6.000000
  0.056526  0.081589  0.000000     12.000000
  0.070658  0.089748  0.000000     12.000000
  0.084790  0.097907  0.000000     12.000000
  0.098921  0.106066  0.000000      6.000000
  0.056526  0.097907  0.000000      6.000000
  0.070658  0.106066  0.000000     12.000000
  0.084790  0.114225  0.000000     12.000000
  0.070658  0.122383  0.000000      6.000000
  0.084790  0.130542  0.000000      6.000000
  0.000000  0.000000  0.021434      2.000000
  0.014132  0.008159  0.021434      6.000000
  0.028263  0.016318  0.021434      6.000000
  0.042395  0.024477  0.021434      6.000000
  0.056526  0.032636  0.021434      6.000000
  0.070658  0.040794  0.021434      6.000000
  0.084790  0.048953  0.021434      6.000000
  0.098921  0.057112  0.021434      6.000000
  0.113053  0.065271  0.021434      6.000000
 -0.113053 -0.065271  0.021434      6.000000
 -0.098921 -0.057112  0.021434      6.000000
 -0.084790 -0.048953  0.021434      6.000000
 -0.070658 -0.040794  0.021434      6.000000
 -0.056526 -0.032636  0.021434      6.000000
 -0.042395 -0.024477  0.021434      6.000000
 -0.028263 -0.016318  0.021434      6.000000
 -0.014132 -0.008159  0.021434      6.000000
  0.014132  0.024477  0.021434     12.000000
  0.028263  0.032636  0.021434     12.000000
  0.042395  0.040794  0.021434     12.000000
  0.056526  0.048953  0.021434     12.000000
  0.070658  0.057112  0.021434     12.000000
  0.084790  0.065271  0.021434     12.000000
  0.098921  0.073430  0.021434     12.000000
  0.113053  0.081589  0.021434     12.000000
 -0.113053 -0.048953  0.021434     12.000000
 -0.098921 -0.040794  0.021434     12.000000
[...]
  0.042395  0.073430  0.085735     12.000000
  0.056526  0.081589  0.085735     12.000000
  0.070658  0.089748  0.085735     12.000000
  0.084790  0.097907  0.085735     12.000000
  0.098921  0.106066  0.085735     12.000000
  0.113053  0.114225  0.085735     12.000000
 -0.113053 -0.016318  0.085735     12.000000
 -0.098921 -0.008159  0.085735     12.000000
  0.056526  0.097907  0.085735     12.000000
  0.070658  0.106066  0.085735     12.000000
  0.084790  0.114225  0.085735     12.000000
  0.098921  0.122383  0.085735     12.000000
  0.113053  0.130542  0.085735     12.000000
  0.070658  0.122383  0.085735     12.000000
  0.084790  0.130542  0.085735     12.000000

 TETIRR: Found   3823 inequivalent tetrahedra from    15606

 I would recommend the setting:
   dimension x,y,z NGX =    23 NGY =   23 NGZ =   29
 SYSTEM =  unknown system
 POSCAR =  Ge Sr

 Startparameter for this run:
   NWRITE =      2    write-flag & timer
   PREC   = med       medium, high low
   ISTART =      0    job   : 0-new  1-cont  2-samecut
   ICHARG =      1    charge: 1-file 2-atom 10-const
   ISPIN  =      1    spin polarized calculation?
   LNONCOLLINEAR =      F non collinear calculations
   LSORBIT =      F    spin-orbit coupling
   INIWAV =      1    electr: 0-lowe 1-rand  2-diag
   LASPH  =      F    aspherical Exc in radial PAW
   METAGGA=      F    non-selfconsistent MetaGGA calc.

 Electronic Relaxation 1
   ENCUT  =  520.0 eV  38.22 Ry    6.18 a.u.   7.74  7.74  9.64*2*pi/ulx,y,z
   ENINI  =  520.0     initial cutoff
   ENAUG  =  531.4 eV  augmentation charge cutoff
   NELM   =     60;   NELMIN=  2; NELMDL=  0     # of ELM steps
   EDIFF  = 0.1E-03   stopping-criterion for ELM
   LREAL  =      F    real-space projection
[...]
 k-point 28 :  0.41180.17650.0000  plane waves:    2094
 k-point 29 :  0.23530.23530.0000  plane waves:    2110
 k-point 30 :  0.29410.23530.0000  plane waves:    2104
 k-point 31 :  0.35290.23530.0000  plane waves:    2098
 k-point 32 :  0.29410.29410.0000  plane waves:    2092
 k-point 33 :  0.35290.29410.0000  plane waves:    2104
 k-point 34 :  0.00000.00000.1111  plane waves:    2119
 k-point 35 :  0.05880.00000.1111  plane waves:    2115
 k-point 36 :  0.11760.00000.1111  plane waves:    2112
 k-point 37 :  0.17650.00000.1111  plane waves:    2102
 k-point 38 :  0.23530.00000.1111  plane waves:    2091
 k-point 39 :  0.29410.00000.1111  plane waves:    2089
 k-point 40 :  0.35290.00000.1111  plane waves:    2084
 k-point 41 :  0.41180.00000.1111  plane waves:    2083
 k-point 42 :  0.47060.00000.1111  plane waves:    2093
 k-point 43 :  -.47060.00000.1111  plane waves:    2093
 k-point 44 :  -.41180.00000.1111  plane waves:    2083
 k-point 45 :  -.35290.00000.1111  plane waves:    2084
 k-point 46 :  -.29410.00000.1111  plane waves:    2089
 k-point 47 :  -.23530.00000.1111  plane waves:    2091
 k-point 48 :  -.17650.00000.1111  plane waves:    2102
 k-point 49 :  -.11760.00000.1111  plane waves:    2112
 k-point 50 :  -.05880.00000.1111  plane waves:    2115
 k-point 51 :  0.05880.05880.1111  plane waves:    2116
 k-point 52 :  0.11760.05880.1111  plane waves:    2105
 k-point 53 :  0.17650.05880.1111  plane waves:    2096
 k-point 54 :  0.23530.05880.1111  plane waves:    2091
 k-point 55 :  0.29410.05880.1111  plane waves:    2090
 k-point 56 :  0.35290.05880.1111  plane waves:    2095
 k-point 57 :  0.41180.05880.1111  plane waves:    2094
 k-point 58 :  0.47060.05880.1111  plane waves:    2094
 k-point 59 :  -.47060.05880.1111  plane waves:    2094
 k-point 60 :  -.41180.05880.1111  plane waves:    2095
[...]
 k-point 85 :  0.29410.23530.1111  plane waves:    2093
 k-point 86 :  0.35290.23530.1111  plane waves:    2098
 k-point 87 :  0.41180.23530.1111  plane waves:    2098
 k-point 88 :  0.47060.23530.1111  plane waves:    2093
 k-point 89 :  0.29410.29410.1111  plane waves:    2103
 k-point 90 :  0.35290.29410.1111  plane waves:    2106
 k-point 91 :  0.00000.00000.2222  plane waves:    2113
 k-point 92 :  0.05880.00000.2222  plane waves:    2110
 k-point 93 :  0.11760.00000.2222  plane waves:    2104
 k-point 94 :  0.17650.00000.2222  plane waves:    2098
 k-point 95 :  0.23530.00000.2222  plane waves:    2097
 k-point 96 :  0.29410.00000.2222  plane waves:    2089
 k-point 97 :  0.35290.00000.2222  plane waves:    2097
 k-point 98 :  0.41180.00000.2222  plane waves:    2097
 k-point 99 :  0.47060.00000.2222  plane waves:    2094
 k-point ** :  -.47060.00000.2222  plane waves:    2094
 k-point ** :  -.41180.00000.2222  plane waves:    2097
 k-point ** :  -.35290.00000.2222  plane waves:    2097
 k-point ** :  -.29410.00000.2222  plane waves:    2089
 k-point ** :  -.23530.00000.2222  plane waves:    2097
 k-point ** :  -.17650.00000.2222  plane waves:    2098
 k-point ** :  -.11760.00000.2222  plane waves:    2104
 k-point ** :  -.05880.00000.2222  plane waves:    2110
 k-point ** :  0.05880.05880.2222  plane waves:    2105
 k-point ** :  0.11760.05880.2222  plane waves:    2093
 k-point ** :  0.17650.05880.2222  plane waves:    2090
 k-point ** :  0.23530.05880.2222  plane waves:    2094
 k-point ** :  0.29410.05880.2222  plane waves:    2096
 k-point ** :  0.35290.05880.2222  plane waves:    2095
 k-point ** :  0.41180.05880.2222  plane waves:    2095
 k-point ** :  0.47060.05880.2222  plane waves:    2095
 k-point ** :  -.47060.05880.2222  plane waves:    2095
 k-point ** :  -.41180.05880.2222  plane waves:    2095
 k-point ** :  -.35290.05880.2222  plane waves:    2096
 k-point ** :  -.29410.05880.2222  plane waves:    2094
 k-point ** :  -.23530.05880.2222  plane waves:    2090
 k-point ** :  -.17650.05880.2222  plane waves:    2093
 k-point ** :  0.11760.11760.2222  plane waves:    2090
 k-point ** :  0.17650.11760.2222  plane waves:    2094
 k-point ** :  0.23530.11760.2222  plane waves:    2094
 k-point ** :  0.29410.11760.2222  plane waves:    2099
 k-point ** :  0.35290.11760.2222  plane waves:    2101
 k-point ** :  0.41180.11760.2222  plane waves:    2094
 k-point ** :  0.47060.11760.2222  plane waves:    2094
 k-point ** :  -.47060.11760.2222  plane waves:    2101
 k-point ** :  -.41180.11760.2222  plane waves:    2099
 k-point ** :  -.35290.11760.2222  plane waves:    2094
 k-point ** :  -.29410.11760.2222  plane waves:    2094
 k-point ** :  0.17650.17650.2222  plane waves:    2096
 k-point ** :  0.23530.17650.2222  plane waves:    2096
 k-point ** :  0.29410.17650.2222  plane waves:    2095
 k-point ** :  0.35290.17650.2222  plane waves:    2094
 k-point ** :  0.41180.17650.2222  plane waves:    2095
 k-point ** :  0.47060.17650.2222  plane waves:    2094
 k-point ** :  -.47060.17650.2222  plane waves:    2095
 k-point ** :  -.41180.17650.2222  plane waves:    2096
 k-point ** :  0.23530.23530.2222  plane waves:    2092
 k-point ** :  0.29410.23530.2222  plane waves:    2092
 k-point ** :  0.35290.23530.2222  plane waves:    2087
 k-point ** :  0.41180.23530.2222  plane waves:    2087
 k-point ** :  0.47060.23530.2222  plane waves:    2092
 k-point ** :  0.29410.29410.2222  plane waves:    2089
 k-point ** :  0.35290.29410.2222  plane waves:    2091
 k-point ** :  0.00000.00000.3333  plane waves:    2089
 k-point ** :  0.05880.00000.3333  plane waves:    2089
 k-point ** :  0.11760.00000.3333  plane waves:    2095
 k-point ** :  0.17650.00000.3333  plane waves:    2087
 k-point ** :  0.23530.00000.3333  plane waves:    2080
 k-point ** :  0.29410.00000.3333  plane waves:    2091
 k-point ** :  0.35290.00000.3333  plane waves:    2095
 k-point ** :  0.41180.00000.3333  plane waves:    2102
 k-point ** :  0.47060.00000.3333  plane waves:    2097
 k-point ** :  -.47060.00000.3333  plane waves:    2097
 k-point ** :  -.41180.00000.3333  plane waves:    2102
 k-point ** :  -.35290.00000.3333  plane waves:    2095
[...]
 k-point ** :  0.17650.17650.4444  plane waves:    2079
 k-point ** :  0.23530.17650.4444  plane waves:    2087
 k-point ** :  0.29410.17650.4444  plane waves:    2096
 k-point ** :  0.35290.17650.4444  plane waves:    2092
 k-point ** :  0.41180.17650.4444  plane waves:    2095
 k-point ** :  0.47060.17650.4444  plane waves:    2092
 k-point ** :  -.47060.17650.4444  plane waves:    2096
 k-point ** :  -.41180.17650.4444  plane waves:    2087
 k-point ** :  0.23530.23530.4444  plane waves:    2089
 k-point ** :  0.29410.23530.4444  plane waves:    2091
 k-point ** :  0.35290.23530.4444  plane waves:    2094
 k-point ** :  0.41180.23530.4444  plane waves:    2094
 k-point ** :  0.47060.23530.4444  plane waves:    2091
 k-point ** :  0.29410.29410.4444  plane waves:    2097
 k-point ** :  0.35290.29410.4444  plane waves:    2103

 maximum and minimum number of plane-waves per node :    1065   1032

 maximum number of plane-waves:    2125
 maximal index in each direction:
   IXMAX=  8   IYMAX=  7   IZMAX=  9
   IXMIN= -8   IYMIN= -8   IZMIN=-10

 WARNING: aliasing errors must be expected set NGX to  34 to avoid them
 WARNING: aliasing errors must be expected set NGY to  32 to avoid them
 WARNING: aliasing errors must be expected set NGZ to  40 to avoid them
 aliasing errors are usually negligible using standard VASP settings
 and one can safely disregard these warnings

 parallel 3D FFT for wavefunctions:
    minimum data exchange during FFTs selected (reduces bandwidth)
 parallel 3D FFT for charge:
    minimum data exchange during FFTs selected (reduces bandwidth)

 Broyden mixing: mesh for mixing (old mesh)
   NGX = 15   NGY = 15   NGZ = 19
  (NGX  = 32   NGY  = 32   NGZ  = 40)
  gives a total of   4275 points

 initial charge density was supplied:
 number of electron   38.0000287 magnetization
 keeping initial charge density in first step

 Maximum index for augmentation-charges          937 (set IRDMAX)

 First call to EWALD:  gamma=   0.415
 Maximum number of real-space cells 3x 3x 2
 Maximum number of reciprocal cells 3x 3x 3

----------------------------------------- Iteration    1(   1)  ---------------------------------------

 BZINTS: Fermi energy: 39.447976; 38.000000 electrons
         Band energy:   2.009380;  BLOECHL correction: -1.626782

 eigenvalue-minimisations  : 16078
 total energy-change (2. order) : 0.5803055E+03  (-0.1458952E+04)
 number of electron   38.0000287 magnetization
 augmentation part    38.0000287 magnetization

 Free energy of the ion-electron system (eV)
  alpha Z        PSCENC =       237.97097646
  Ewald energy   TEWEN  =     -3247.31336051
  -1/2 Hartree   DENC   =     -1778.57691287
  -exchange  EXHF       =         0.00000000
  -V(xc)+E(xc)   XCENC  =       181.23446885
  PAW double counting   =      3859.70636218    -4710.02536115
  entropy T*S    EENTRO =         0.00000000
  eigenvalues    EBANDS =         2.00938050
  atomic energy  EATOM  =      6035.29993485
  free energy    TOTEN  =       580.30548831 eV

  energy without entropy =      580.30548831  energy(sigma->0) =      580.30548831

[...]

 BZINTS: Fermi energy: 12.007355; 38.000000 electrons
         Band energy:-461.240811;  BLOECHL correction: -0.289226

 eigenvalue-minimisations  : 12740
 total energy-change (2. order) :-0.4632502E+03  (-0.4364168E+03)
 number of electron   38.0000287 magnetization
 augmentation part    38.0000287 magnetization

[...]

 Broyden mixing:
  rms(total) = 0.36616E-01    rms(broyden)= 0.36588E-01
  rms(prec ) = 0.54253E-01
  weight for this iteration     100.00

[...]

 eigenvalues of (default mixing * dielectric matrix)
  average eigenvalue GAMMA=   1.6787
  1.6787

[...]

 Broyden mixing:
  rms(total) = 0.18992E-03    rms(broyden)= 0.18991E-03
  rms(prec ) = 0.31014E-03
  weight for this iteration     100.00

 eigenvalues of (default mixing * dielectric matrix)
  average eigenvalue GAMMA=   1.5407
  3.2956  3.2956  2.4700  1.2289  1.2289  1.6294  0.9353  0.9353  1.1673  0.9797
  0.6613  0.6613

[...]

----------------------------------------- Iteration    1(  18)  ---------------------------------------

[...]

 eigenvalue-minimisations  : 15847
 total energy-change (2. order) :-0.8277168E-04  (-0.8046615E-04)
 number of electron   38.0000287 magnetization
 augmentation part    17.6351008 magnetization

 Free energy of the ion-electron system (eV)
  alpha Z        PSCENC =       237.97097646
  Ewald energy   TEWEN  =     -3247.31336051
  -1/2 Hartree   DENC   =     -1778.53245961
  -exchange  EXHF       =         0.00000000
  -V(xc)+E(xc)   XCENC  =       181.23324987
  PAW double counting   =      3860.72727211    -4710.79710231
  entropy T*S    EENTRO =         0.00000000
  eigenvalues    EBANDS =      -591.00751237
  atomic energy  EATOM  =      6035.29993485
  free energy    TOTEN  =       -12.41900152 eV

  energy without entropy =      -12.41900152  energy(sigma->0) =      -12.41900152

 average (electrostatic) potential at core
  the test charge radii are     0.9911  1.1929
  (the norm of the test charge is              1.0000)
       1 -31.3448       2 -31.3448       3 -38.4528

 E-fermi :   3.5272     XC(G=0):  -9.6756     alpha+bet : -9.2260
   add alpha+bet to get absolut eigen values

 k-point   1 :       0.0000    0.0000    0.0000
  band No.  band energies     occupation
      1     -32.3676      2.00000
      2     -21.3799      2.00000
      3     -21.3799      2.00000
      4     -21.3210      2.00000
      5     -21.3210      2.00000
      6     -21.2479      2.00000
      7     -21.2330      2.00000
      8     -21.2074      2.00000
      9     -21.2074      2.00000
     10     -21.1857      2.00000
     11     -21.1857      2.00000
     12     -14.5814      2.00000
     13     -14.3642      2.00000
     14     -14.3642      2.00000
     15      -8.0416      2.00000
     16      -1.3330      2.00000
     17       1.5618      2.00000
     18       2.0738      2.00000
     19       2.0741      2.00000
     20       3.5214      0.00135
     21       5.8112      0.00000
     22       5.8114      0.00000
     23       6.8154      0.00000
     24       7.3120      0.00000

[...]

 k-point 261 :       0.3529    0.2941    0.4444
  band No.  band energies     occupation
      1     -32.3507      2.00000
      2     -21.4003      2.00000
      3     -21.3210      2.00000
      4     -21.3117      2.00000
      5     -21.2802      2.00000
      6     -21.2747      2.00000
      7     -21.2572      2.00000
      8     -21.2538      2.00000
      9     -21.1938      2.00000
     10     -21.1912      2.00000
     11     -21.1768      2.00000
     12     -14.5440      2.00000
     13     -14.5380      2.00000
     14     -14.5083      2.00000
     15      -5.4341      2.00000
     16      -5.0332      2.00000
     17      -0.5039      2.00000
     18       1.0245      2.00000
     19       1.1966      2.00000
     20       4.6433      0.00000
     21       6.1304      0.00000
     22       6.2926      0.00000
     23       7.7073      0.00000
     24       7.9078      0.00000

 soft charge-density along one line, spin component           1
         0         1         2         3         4         5         6         7         8         9
 total charge-density along one line

------------------------ aborting loop because EDIFF is reached ----------------------------------------

 total charge

# of ion     s       p       d       tot
  1        1.161   1.167   9.987  12.316
  2        1.161   1.167   9.987  12.316
  3        2.016   5.760   0.241   8.017
tot        4.339   8.095  20.215  32.649

  FREE ENERGIE OF THE ION-ELECTRON SYSTEM (eV)
  free  energy   TOTEN  =       -12.419002 eV

  energy  without entropy=      -12.419002  energy(sigma->0) =      -12.419002

  FORCE on cell =-STRESS in cart. coord.  units (eV):
  Direction    XX          YY          ZZ          XY          YZ          ZX
  Alpha Z   237.97098   237.97098   237.97098
  Ewald    -906.31311  -906.31090 -1434.69319     0.00189     0.00048    -0.00080
  Hartree   740.18694   740.18799   298.16018     0.00091     0.00024    -0.00040
  E(xc)    -202.71029  -202.71001  -202.78816     0.00024     0.00000    -0.00001
  Local      41.95513    41.94837  1008.72388    -0.00585    -0.00070     0.00117
  n-local   -59.52235   -60.33102   -59.28386     0.76413    -0.57405     0.03931
  augment  -115.31338  -115.30947  -114.09094     0.00338    -0.00001     0.00001
  Kinetic   262.20386   266.43566   266.14781    -4.55906     0.49140    -0.31999
  Fock        0.00000     0.00000     0.00000     0.00000     0.00000     0.00000
  Total       0.16969     0.16969     0.14669     0.00000     0.00000     0.00000
  in kB       3.49507     3.49507     3.02143     0.00000     0.00000     0.00000

 VOLUME and BASIS-vectors are now :
  energy-cutoff  :      520.00
  volume of cell :       77.79
      direct lattice vectors                 reciprocal lattice vectors
     4.162546644  0.000000000  0.000000000     0.240237548  0.138701216  0.000000000
    -2.081273322  3.604871071  0.000000000     0.000000000  0.277402431  0.000000000
     0.000000000  0.000000000  5.183943586     0.000000000  0.000000000  0.192903334

  length of vectors
     4.162546644  4.162546586  5.183943586     0.277402428  0.277402431  0.192903334

 FORCES acting on ions
    electron-ion (+dipol)            ewald-force                    non-local-force                 convergence-correction
   0.151E-03 -.795E-04 0.187E+03   0.126E-02 -.735E-03 -.199E+03   -.694E-17 -.347E-17 0.124E+02   -.225E-07 0.129E-07 0.617E-03
   -.151E-03 0.795E-04 -.187E+03   -.126E-02 0.735E-03 0.199E+03   0.139E-16 0.347E-17 -.124E+02   0.225E-07 -.129E-07 -.617E-03
   0.226E-14 0.561E-14 0.120E-13   -.122E-14 -.914E-14 -.639E-13   -.169E-20 0.000E+00 0.000E+00   -.123E-13 -.107E-13 0.444E-13
   0.173E-11 -.263E-12 0.143E-10   -.258E-14 0.894E-15 -.355E-13   0.694E-17 0.000E+00 0.178E-14   -.812E-13 0.120E-12 -.459E-12

 POSITION                                       TOTAL-FORCE (eV/Angst)
      0.00000      2.40325      2.09604         0.000000      0.000000     -0.068977
      2.08128      1.20162      3.08790         0.000000      0.000000      0.068977
      0.00000      0.00000      0.00000         0.000000      0.000000      0.000000
    total drift:                                0.000000      0.000000      0.000000

 total charge

# of ion     s       p       d       tot
  1        1.161   1.167   9.987  12.316
  2        1.161   1.167   9.987  12.316
  3        2.016   5.760   0.241   8.017
tot        4.339   8.095  20.215  32.649

 BZINTS: Fermi energy:  3.527216; 38.000000 electrons
         Band energy:-591.007512;  BLOECHL correction: -0.002569